StartDate,EndDate,Status,Progress,Duration__in_seconds_,Finished,RecordedDate,ResponseId,Consent_Form_1,Consent_Form_2,Consent_Form_3,Consent_Form_4,Consent_Form_5,Consent_Form_6,Q54,Q7_First_Click,Q7_Last_Click,Q7_Page_Submit,Q7_Click_Count,Prolific_ID,Well_being_1,Well_being_2,Well_being_3,Well_being_4,Well_being_5,Productivity_1,Productivity_4,Productivity_1.0,Productivity_1.1,Q53_1,Q53_2,Q53_3,Q53_4,Q53_5,Q53_6,Q53_7,Q53_8,Q53_9,Q53_10,Q53_11,Q53_12,Q53_13,Q53_14,Q53_15,Q36_First_Click,Q36_Last_Click,Q36_Page_Submit,Q36_Click_Count,Boredom_1,Boredom_2,Boredom_3,Boredom_4,Boredom_5,Boredom_6,Boredom_7,Boredom_8,Compliance_1,Compliance_2,Compliance_3,Conspiracy_beliefs_1,Conspiracy_beliefs_2,Conspiracy_beliefs_3,Conspiracy_beliefs_4,Conspiracy_beliefs_5,Brief_COPE_1,Brief_COPE_2,Brief_COPE_3,Brief_COPE_4,Brief_COPE_5,Brief_COPE_6,Brief_COPE_7,Brief_COPE_8,Brief_COPE_9,Brief_COPE_10,Brief_COPE_11,Brief_COPE_12,Brief_COPE_13,Brief_COPE_14,Brief_COPE_15,Brief_COPE_16,Brief_COPE_17,Brief_COPE_18,Brief_COPE_19,Brief_COPE_20,Brief_COPE_21,Brief_COPE_22,Brief_COPE_23,Brief_COPE_24,Brief_COPE_25,Brief_COPE_26,Brief_COPE_27,Brief_COPE_28,Q37_First_Click,Q37_Last_Click,Q37_Page_Submit,Q37_Click_Count,psychological_needs_1,psychological_needs_2,psychological_needs_3,psychological_needs_4,psychological_needs_5,psychological_needs_6,psychological_needs_7,psychological_needs_8,psychological_needs_9,psychological_needs_10,psychological_needs_11,psychological_needs_12,psychological_needs_13,psychological_needs_14,psychological_needs_15,psychological_needs_16,psychological_needs_17,psychological_needs_18,Office_set_up_1,Office_set_up_2,Office_set_up_3,communication_1,communication_2,communication_3,Quality_of_Sleep_1,Stress_1,Stress_2,Stress_3,Stress_4,Daily_Routines_1,Daily_Routines_2,Daily_Routines_3,Self_Control_1,Self_Control_2,Self_Control_3,Technological_Skills_1,Volunteering_1,Volunteering_2,Volunteering_3,Extraversion_1,Extraversion_2,Extraversion_3,Extraversion_4,Q38_First_Click,Q38_Last_Click,Q38_Page_Submit,Q38_Click_Count,Diet_1,Diet_2,Distractions_at_home_1,Distractions_at_home_2,Exercising,Exercising.0,Exercising.1,Financial_Situation_1,Financial_Situation_2,Generalized_Anxiety_1,Generalized_Anxiety_2,Generalized_Anxiety_3,Generalized_Anxiety_4,Generalized_Anxiety_5,Generalized_Anxiety_6,Generalized_Anxiety_7,Anxiety_COVID_19_1,Anxiety_COVID_19_2,Loneliness_1,Loneliness_2,Loneliness_3,Loneliness_2_1,Loneliness_2_2,Loneliness_2_3,Mental_exercise_1,Mental_exercise_2,MWMS_1,MWMS_2,MWMS_3,MWMS_4,MWMS_5,MWMS_6,MWMS_7,MWMS_8,MWMS_9,social_contacts_1,social_contacts_2,social_contacts_3,Q41,Q41_6_TEXT,Q43,Q43_3_TEXT,Q45,Q52,Age,Q58,Q59_3,Q59_4,Q59_9,Q59_10,Q59_11,Babies,Toddlers,Children,Teenager,Adults,Q49_1,Q49_2,Q49_3,Q49_4,Income,Time_remote,Q54_1,Q54_2,Q54_3,Q54_1_TEXT,Q54_2_TEXT,Q54_3_TEXT,Q53,IMC1,IMC_FAIL,Test1,Test2,Test3,N1,N2,N3,N4,P1,P2,P3,P4,M1,M2,M3,M4,O1,C1,HE03,HE04,E1,H1,HE07,HE08,HE09,X2,HE11,HE12,O3,C3,A3,X3,HE17,HE18,O4,HE20,A4,HE22,E4,HE24,NCS01,NCS02,NCS03,NCS04,NCS05,NCS06,ProlificID,How_old_are_you,Gender,Country,Country_Other,Degree,Degree_Other,Q9,Q9_19_TEXT,Q17,Q17_23_TEXT,Q18,Q19,Q20,Q21,Q22,Q23,Q23_66_TEXT,Q24,Q24_81_TEXT,Q25,Q25_88_TEXT,Years_IT,Q55,Q56,Q57,A1,X1,O2,C2,A2,E2,H2,E3,H3,C4,X4,H4,NCS03R,NCS04R,M,P,N,H,E,Ext,A,C,O,Nn,OS,G,StartDate2,EndDate2,Status2,Progress2,Duration__in_seconds_2,Finished2,RecordedDate2,ResponseId2,Consent_Form_12,Consent_Form_22,Consent_Form_32,Consent_Form_42,Consent_Form_52,Consent_Form_62,Q542,Q7_First_Click2,Q7_Last_Click2,Q7_Page_Submit2,Q7_Click_Count2,Q622,Well_being_12,Well_being_22,Well_being_32,Well_being_42,Well_being_52,Productivity_12,Productivity_42,Productivity_1.02,Productivity_1.12,Q53_1_2,Q53_22,Q53_32,Q53_42,Q53_52,Q53_62,Q53_72,Q53_82,Q53_92,Q53_102,Q53_112,Q53_122,Q53_132,Q53_142,Q53_152,Q36_First_Click2,Q36_Last_Click2,Q36_Page_Submit2,Q36_Click_Count2,Boredom_12,Boredom_22,Boredom_32,Boredom_42,Boredom_52,Boredom_62,Boredom_72,Boredom_82,Brief_COPE_1.2,Brief_COPE_2.2,Brief_COPE_3.2,Brief_COPE_4.2,Q37_First_Click2,Q37_Last_Click2,Q37_Page_Submit2,Q37_Click_Count2,psychological_needs_1_2,psychological_needs_22,psychological_needs_32,psychological_needs_42,psychological_needs_52,psychological_needs_62,psychological_needs_72,psychological_needs_82,psychological_needs_92,psychological_needs_102,psychological_needs_112,psychological_needs_122,psychological_needs_132,psychological_needs_142,psychological_needs_152,psychological_needs_162,psychological_needs_172,psychological_needs_182,communication_12,communication_22,communication_32,Quality_of_Sleep_12,Stress_12,Stress_22,Stress_32,Stress_42,Daily_Routines_12,Daily_Routines_22,Daily_Routines_32,Extraversion_12,Extraversion_22,Extraversion_32,Extraversion_42,Q38_First_Click2,Q38_Last_Click2,Q38_Page_Submit2,Q38_Click_Count2,Distractions_at_home_12,Distractions_at_home_22,Generalized_Anxiety_12,Generalized_Anxiety_22,Generalized_Anxiety_32,Generalized_Anxiety_42,Generalized_Anxiety_52,Generalized_Anxiety_62,Generalized_Anxiety_72,Loneliness_12,Loneliness_22,Loneliness_32,Q672,Q682,Loneliness_2_12,Loneliness_2_22,Loneliness_2_32,social_contacts_12,social_contacts_22,social_contacts_32,Q64_12,Q64_22,Q522,Q612,Q63_12,Comments2
4/26/2020 8:16:06,4/26/2020 8:39:09,0,100,1383,1,4/26/2020 8:39:10, ,1,1,1,1,1,1,4,38.989,55.061,68.495,7, ,15,17,17,17,16,20,50,90,-60, , , , , , , , , , , , , , , ,12.524,195.364,208.655,34,12,12,15,13,12,12,12,12,7,8,8,12,12,12,11,12,7,5,4,6,7,7,7,4,7,6,6,4,4,7,7,4,6,6,7,8,7,4,5,8,6,4,5,6,6.039,240.405,255.742,63,3,2,4,1,4,1,4,2,2,1,3,2,4,3,4,3,3,1,17,16,17,5,5,4,3,3,4,3,3,2,5,3,4,3,2,27,5,5,3,2,3,4,2,10.041,255.625,450.144,50,3,11,21,23,2,2,1,5,4,9,5,5,9,5,4,4,4,4,38,39,37,39,39,40,16,15,3,2,3,1,3,5,3,3,4,2,3,4,2, ,1, , ,1,49,4, , ,1, ,1, , ,1, ,1, ,1, , ,5,85,1,1,1,0,0,0, , , , , , , , , , , , , , , , , , , , , , , , , , , , , , , , , , , , , , , , , , , , , , , , , ,49,1,9, ,4, , , , , , , , , , , , , , , , , , , , , , , , , , , , , , , , , , , , , , , , , , , , , , , , , , , , , , ,1,1,1,1,1,1,4,29.844,42.871,47.671,7,1,16,16,17,19,16,22,50,100,-80, , , , , , , , , , , , , , , ,6.327,183.653,189.013,33,12,13,15,13,12,12,12,12,5,5,4,6,5.237,87.653,89.924,15,4,2,4,1,4,2,5,2,2,1,3,3,4,2,4,1,3,1,4,4,3,4,4,4,3,3,2,6,5,2,4,4,2,12.251,199.619,207.278,44,21,23,9,5,5,9,4,4,4,38,41,37,4,Extroverts need more attention from others - which the current pandemic deprives them of.,39,39,40,5,5,2,4,3,1,3,100,"Feeling frustrated, mainly with the lack of strong measures taken by my government, and lack of faith in their 'solutions' that are being planned."
4/26/2020 9:20:00,4/26/2020 9:36:06,0,100,966,1,4/26/2020 9:36:07, ,1,1,1,1,1,1,4,9.184,19.413,20.794,7, ,17,18,18,18,17,27,38,100,-38, , , , , , , , , , , , , , , ,6.801,130.326,132.591,31,12,13,15,12,13,12,12,12,7,8,8,16,15,14,12,14,5,5,4,4,4,4,6,4,4,4,4,5,4,6,5,4,6,5,4,5,5,4,4,6,5,4,4,4,7.702,302.038,303.627,44,3,2,3,1,3,1,3,1,3,1,3,3,4,3,3,2,3,2,17,17,16,4,5,4,4,1,5,4,2,6,1,7,3,4,1,27,1,7,2,3,2,3,4,9.247,201.734,203.43,45,13,13,21,22,0,1,0,8,8,4,4,4,4,1,4,4,4,4,37,37,37,40,40,40,13,13,1,1,1,1,1,1,4,4,4,4,4,4,2, ,3,portugal, ,1,45,4,1,1,1,1,1,0,0,1,1,2, ,1, , ,6,10,1,1,1,0,0,0,no, , , , , , , , , , , , , , , , , , , , , , , , , , , , , , , , , , , , , , , , , , , , , , , , ,45,1,3,portugal,5, , , , , , , , , , , , , , , , , , , , , , , , , , , , , , , , , , , , , , , , , , , , , , , , , , , , , , ,1,1,1,1,1,1,4,4.233,11.656,13.693,7,1,16,17,17,17,17,18,40,10,-90, , , , , , , , , , , , , , , ,5.394,116.777,118.674,21,12,11,12,14,11,12,12,12,4,4,6,4,6.846,62.387,63.338,12,2,3,2,1,2,1,2,2,2,1,3,2,4,2,3,1,2,1,3,3,2,1,2,5,4,2,2,1,6,2,3,1,3,4.917,156.421,157.406,40,24,21,9,9,9,9,1,9,1,37,37,37,3,"it depends on the family and friends contacts that everyone is capable to do, sleep habits and other aspects that may interfere with everyone",40,40,39,5,5,5,5,5,3,1,0,"i'm supporting children with remote lessons and it consumes much time that i can't put on my work. also, i go to sleep very late and wake late too."
4/26/2020 7:52:17,4/26/2020 8:06:23,0,100,845,1,4/26/2020 8:06:23, ,1,1,1,1,1,1,4,8.63,19.094,20.229,8, ,19,19,19,18,17,43,40,100,0, , , , , , , , , , , , , , , ,4.138,119.426,133.861,35,12,12,12,12,12,12,12,11,6,8,8,12,12,11,15,11,7,5,4,4,5,6,6,4,7,5,4,6,7,5,7,6,7,6,6,7,7,4,5,7,4,5,4,5,9.615,206.966,207.56,58,4,2,4,2,3,2,4,4,4,4,3,3,4,3,3,3,4,2,17,17,17,5,5,5,5,2,3,3,2,6,2,6,4,2,1,28,1,6,5,2,1,3,4,4.514,205.662,206.354,64,11,11,21,24,0,1.5,0,7,7,5,4,4,4,4,5,1,2,3,38,37,37,40,38,41,17,12,4,3,4,4,4,2,5,5,5,4,4,6,2, ,3,Hungary, ,1,36,4,1,1,1,1,1,0,0,2,0,1, ,1, , ,6,20,1,1,1,0,0,0, , , , , , , , , , , , , , , , , , , , , , , , , , , , , , , , , , , , , , , , , , , , , , , , , ,36,1,3,Hungary,5, , , , , , , , , , , , , , , , , , , , , , , , , , , , , , , , , , , , , , , , , , , , , , , , , , , , , , ,1,1,1,1,1,1,4,34.5,39.012,45.122,7,1,19,19,19,20,19,43,40,100,0, , , , , , , , , , , , , , , ,2.272,75.686,77.469,18,13,13,12,13,13,12,11,11,5,7,5,7,3.706,58.923,59.637,19,3,1,3,1,2,1,3,2,3,2,3,2,3,3,2,2,3,2,5,6,5,5,2,3,3,3,2,2,4,2,1,2,3,3.932,171.224,171.976,67,21,23,5,5,5,5,4,5,1,38,37,38,4,I'm an introverted person and it's like heaven for me: there's nobody around me but my family.,37,39,40,5,5,5,5,5,1,2,5,"It's OK, really. It's because I'm introverted and I'm really bad in any kind of social interactions."
4/27/2020 12:34:21,4/27/2020 13:04:03,0,100,1782,1,4/27/2020 13:04:03, ,1,1,1,1,1,1,4,4.56,49.619,50.662,17, ,17,19,20,19,18,40,40,75,8, , , , , , , , , , , , , , , ,35.581,351.473,352.302,80,16,13,14,15,13,12,12,11,8,8,7,11,11,11,11,11,5,5,4,6,5,5,5,4,4,6,6,5,4,4,6,4,5,6,6,7,5,4,5,7,6,4,4,6,20.356,380.536,382.717,100,3,3,2,1,2,1,3,2,3,1,2,2,2,4,2,1,2,2,17,17,15,4,3,5,2,3,4,3,4,6,5,5,3,4,2,28,1,3,5,2,2,4,2,14.098,492.244,494.147,88,3,12,21,22,0,0,2,10,10,1,1,5,4,4,1,1,2,3,38,40,37,39,39,38,16,11,4,4,3,3,3,3,4,4,5,3,4,1,2, ,1, , ,1,27,4,1,1,1,1,1,0,0,0,0,1, ,1, , ,7,16,1,1,1,0,0,0, , , , , , , , , , , , , , , , , , , , , , , , , , , , , , , , , , , , , , , , , , , , , , , , , ,26,1,9, ,5, , , , , , , , , , , , , , , , , , , , , , , , , , , , , , , , , , , , , , , , , , , , , , , , , , , , , , , , , , , , , , , , , , , , , , , , , , , , , , , , , , , , , , , , , , , , , , , , , , , , , , , , , , , , , , , , , , , , , , , , , , , , , , , , , , , , , , , , , , , , , , , , , , , , , , , , , , , , , , , , , , , , , , , , , , , , , 
4/26/2020 11:00:45,4/26/2020 11:10:59,0,100,614,1,4/26/2020 11:11:00, ,1,1,1,1,1,1,4,67.91,84.069,85.038,7, ,19,20,20,21,17,40,40,90,0, , , , , , , , , , , , , , , ,5.928,87.137,88.747,32,11,11,13,11,16,11,11,11,8,8,8,11,11,11,11,11,4,4,4,4,5,4,7,4,5,4,4,6,4,6,7,4,6,5,6,8,5,6,4,8,4,4,5,4,3.219,94.027,94.781,49,5,1,5,1,5,1,2,1,1,1,3,1,5,3,4,3,3,1,17,17,17,5,6,5,6,1,5,5,1,7,7,7,4,3,1,28,1,6,6,1,2,3,1,13.242,126.666,127.364,51,13,12,20,20,2,2.5,0,9,9,4,1,1,1,1,1,1,4,2,37,37,37,41,41,41,15,13,1,1,6,7,6,5,1,1,1,6,5,6,2, ,2, ,45,1,41,4, , , ,1, , , , ,1, , ,1, , ,8,100, , , , , , , , , , , , , , , , , , , , , , , , , , , , , , , , , , , , , , , , , , , , , , , , , , , , , , , ,41,1,10, ,4, , , , , , , , , , , , , , , , , , , , , , , , , , , , , , , , , , , , , , , , , , , , , , , , , , , , , , ,1,1,1,1,1,1,4,4.293,7.94,8.793,7,1,21,20,20,20,20,40,40,100,0, , , , , , , , , , , , , , , ,1.434,67.538,68.989,30,11,11,16,11,15,11,11,11,4,4,4,4,1.691,27.314,28.436,14,5,1,5,1,4,1,1,1,1,1,3,1,4,1,3,2,2,1,2,4,4,6,4,5,3,1,7,7,7,1,2,3,1,1.769,63.748,64.459,35,20,24,4,1,1,1,1,1,1,37,37,37,4,Extroverts love to be the center of attention and around people.  That is difficult when you are just at home.,41,41,41,6,6,6,5,5,1,3,0,I'm doing ok.  I'm frustrated in seeing people being more free with their activities and getting together than they should at this time.
4/26/2020 9:21:55,4/26/2020 9:31:45,0,100,590,1,4/26/2020 9:31:46, ,1,1,1,1,1,1,4,22.171,25.39,26.166,7, ,15,16,16,15,18,40,40,100,-30, , , , , , , , , , , , , , , ,7.408,149.066,149.638,34,12,11,15,14,15,11,11,11,7,6,7,11,11,11,11,11,8,4,4,8,6,6,6,4,6,6,8,4,6,6,6,6,5,6,8,8,8,4,6,8,6,5,4,4,2.728,102.086,102.79,51,3,3,3,1,2,2,3,4,1,3,2,3,4,5,2,3,2,1,16,17,16,4,6,4,4,5,3,3,4,4,1,6,3,3,2,28,1,1,3,1,1,3,1,3.789,108.802,109.225,47,2,12,21,21,1,1,0,9,9,9,9,1,9,9,9,9,5,3,40,40,37,38,40,40,13,11,7,7,7,7,7,7,4,3,4,4,6,1,2, ,2, ,5,1,35,4,1,1,1,1,1,0,0,0,0,1, ,1, , ,9,100,1,1,1,4,0,0,"I was guessing about how many flights - I don't actually recall exactly how many trips there have been in the past 12 months, I don't keep track of that.", , , , , , , , , , , , , , , , , , , , , , , , , , , , , , , , , , , , , , , , , , , , , , , , ,35,1,10, ,4, , , , , , , , , , , , , , , , , , , , , , , , , , , , , , , , , , , , , , , , , , , , , , , , , , , , , , ,1,1,1,1,1,1,4,1.749,4.6,6.719,7,1,15,15,16,15,18,40,40,100,-25, , , , , , , , , , , , , , , ,1.668,118.468,118.838,26,11,11,15,11,14,14,11,11,6,6,6,6,2.318,28.331,29.149,13,4,3,4,1,3,3,3,3,3,3,3,3,3,5,3,3,3,3,6,6,6,5,5,3,3,4,5,1,6,1,1,3,2,2.484,73.367,74.067,37,21,21,9,9,1,9,1,9,10,40,39,37,4,"That's pretty obvious - people who like having other people around constantly, will be constantly disappointed, while people who only sometimes like having people around, will only sometimes be disapp",39,41,40,6,6,1,5,5,1,3,0,"since this was wave two, you probably already asked me this last time, and it hasn't really changed much"
4/26/2020 9:51:59,4/26/2020 10:03:43,0,100,704,1,4/26/2020 10:03:44, ,1,1,1,1,1,1,4,6.69,14.488,15.45,8, ,20,20,21,21,20,42,36,80,-29, , , , , , , , , , , , , , , ,4.492,126.589,132.613,31,13,12,16,12,16,12,12,12,8,8,7,14,15,15,11,12,5,8,4,6,5,5,8,4,5,5,6,4,7,7,5,4,4,6,6,8,7,4,4,8,7,4,4,5,3.297,168.157,169.848,76,3,1,2,2,2,2,3,4,3,2,3,4,4,3,1,3,2,2,12,16,12,4,5,4,3,3,5,3,3,6,2,6,4,4,1,26,3,3,5,2,4,3,4,5.301,145.811,147.342,62,3,13,20,23,3,0,0,9,7,5,1,9,1,1,10,1,3,3,38,38,39,37,37,38,16,16,4,5,7,5,6,6,2,2,2,5,5,5,2, ,1, , ,1,44,3, , , , , , , , , , , ,1, , ,8,25,1,1,1,0,0,0, , , , , , , , , , , , , , , , , , , , , , , , , , , , , , , , , , , , , , , , , , , , , , , , , ,44,1,9, ,5, , , , , , , , , , , , , , , , , , , , , , , , , , , , , , , , , , , , , , , , , , , , , , , , , , , , , , ,1,1,1,1,1,1,4,6.895,12.028,15.244,7,1,19,20,21,20,20,40,35,97,23, , , , , , , , , , , , , , , ,1.869,126.497,130.818,30,12,11,16,11,15,12,12,11,5,7,4,6,2.053,40.875,41.784,21,2,1,1,1,1,1,4,1,2,2,3,2,4,4,2,3,2,2,5,5,5,3,3,4,3,3,7,7,7,4,4,3,4,3.816,103.56,104.437,51,20,23,5,1,5,4,1,5,1,37,38,37,4,Extroverts need people more than introverts do,39,38,39,4,4,5,5,6,1,3,0,"Lack of a good setup at home (big enough desk, enough monitors) is an issue for me"
4/26/2020 7:44:50,4/26/2020 7:57:04,0,100,733,1,4/26/2020 7:57:04, ,1,1,1,1,1,1,4,2.13,20.787,22.732,22, ,20,21,20,20,21,39,39,100,50, , , , , , , , , , , , , , , ,1.322,117.53,118.878,71,11,11,12,11,11,11,11,11,8,8,8,14,12,12,11,12,6,6,6,4,4,4,7,4,6,4,4,5,4,5,6,4,6,5,6,8,4,4,4,7,5,4,4,4,.991,234.756,235.482,97,3,1,5,1,4,1,4,1,4,1,4,1,5,1,4,1,4,1,16,17,17,4,6,6,7,1,5,4,2,7,4,5,5,1,1,28,1,4,6,3,3,3,1,3.118,149.509,150.218,123,14,14,20,24,6,1,0,9,10,1,1,1,1,1,1,1,4,3,37,37,37,40,41,41,14,15,2,4,2,2,4,1,4,4,4,4,4,5,2, ,1, , ,1,34,4,1,1,1,1,1,0,0,0,0,2, ,1, , ,7,15,1,1,1,0,2,0, , , , , , , , , , , , , , , , , , , , , , , , , , , , , , , , , , , , , , , , , , , , , , , , , ,34,1,9, ,4, , , , , , , , , , , , , , , , , , , , , , , , , , , , , , , , , , , , , , , , , , , , , , , , , , , , , , ,1,1,1,1,1,1,4,9.795,21.606,22.535,17,1,17,20,20,20,18,39,38,85,67, , , , , , , , , , , , , , , ,1.814,88.344,89.813,65,11,11,13,12,11,12,11,11,4,5,4,4,1.072,43.791,44.295,34,3,1,3,1,3,1,5,1,4,1,5,1,5,1,5,2,3,1,4,4,5,7,1,1,5,1,7,7,7,1,3,3,1,1.291,99.727,100.535,80,20,24,1,1,1,1,1,1,1,37,37,37,4,They are used to socialising and going to crowded places much more often than introverts.,41,41,41,6,6,6,5,5,1,3,0,I am feeling content in how things have settled down and now the prospect of being allowed more exercise.
4/26/2020 7:42:45,4/26/2020 7:57:42,0,100,896,1,4/26/2020 7:57:42, ,1,1,1,1,1,1,4,0,0,53.271,0, ,16,16,16,17,16,45,45,100,0, , , , , , , , , , , , , , , ,100.232,142.311,144.029,16,15,13,16,16,16,16,16,12,2,8,7,12,12,12,12,12,4,4,4,4,4,6,4,4,7,4,4,4,6,4,4,6,4,4,4,8,7,4,4,8,4,4,4,4,71.04,207.831,208.793,45,3,1,2,4,2,3,5,3,2,1,4,1,3,3,2,4,2,3,16,16,12,3,5,4,4,2,2,2,3,7,7,7,2,5,2,27,1,5,3,3,2,2,4,6.362,237.592,245.824,50,3,11,21,23,7,0,0,4,4,5,5,5,5,1,9,5,5,5,37,37,37,38,38,40,15,15,3,3,3,3,3,3,2,1,2,2,2,5,2, ,1, , ,1,62,4,1,1,1,1,1,0,0,0,0,1, ,1, , ,6,100,1,1,1,0,0,0, , , , , , , , , , , , , , , , , , , , , , , , , , , , , , , , , , , , , , , , , , , , , , , , , ,61,1,9, ,4, , , , , , , , , , , , , , , , , , , , , , , , , , , , , , , , , , , , , , , , , , , , , , , , , , , , , , ,1,1,1,1,1,1,4,15.78,26.539,27.905,7,1,16,16,16,16,16,45,45,90,0, , , , , , , , , , , , , , , ,2.181,102.141,113.527,22,12,12,15,16,16,14,14,12,4,8,4,8,2.808,47.056,48.215,13,2,1,3,3,2,3,4,1,2,1,4,1,3,4,2,3,3,2,5,5,5,4,2,2,2,4,6,6,6,3,2,2,4,8.475,100.099,101.211,42,21,23,1,10,10,9,1,10,9,40,37,37,4,"I think extroverts will miss being around other people but introverts wouldn't, therefore, extroverts will struggle more.",39,39,39,3,4,5,5,5,1,3,0, 
4/27/2020 0:32:43,4/27/2020 0:59:15,0,100,1592,1,4/27/2020 0:59:16, ,1,1,1,1,1,1,4,22.042,24.63,27.045,7, ,15,16,16,16,15,41,43,100,0, , , , , , , , , , , , , , , ,2.199,493.866,494.792,33,11,11,14,12,11,11,11,11,8,8,8,11,11,11,11,11,6,7,4,4,8,4,7,4,7,7,4,7,4,7,8,4,4,4,7,8,8,4,7,6,6,4,6,4,3.697,234.061,234.861,50,5,3,5,1,4,2,5,1,4,1,5,1,3,5,2,3,3,4,17,17,17,5,5,5,4,4,3,2,3,1,5,6,5,1,1,28,1,5,7,1,2,5,3,3.348,260.474,261.246,57,11,14,20,24,2,5.5,2,4,4,9,5,5,5,5,4,5,5,5,37,39,37,41,41,41,17,15,2,2,1,6,6,7,4,4,4,5,5,5,2, ,2, ,42,3,37,4,1,1,1,1,1,0,0,0,0,1, ,1, , ,7,16,1,1,1,3,1,0, , , , , , , , , , , , , , , , , , , , , , , , , , , , , , , , , , , , , , , , , , , , , , , , , ,37,1,10, ,5, , , , , , , , , , , , , , , , , , , , , , , , , , , , , , , , , , , , , , , , , , , , , , , , , , , , , , ,1,1,1,1,1,1,4,2.397,5.009,5.818,7,1,15,16,16,16,15,40,42,100,0, , , , , , , , , , , , , , , ,1.724,61.818,62.553,29,11,14,13,12,11,14,12,11,4,4,4,4,105.028,132.996,133.501,19,5,3,5,1,4,1,5,3,4,1,4,1,2,5,3,2,3,4,5,5,5,3,3,3,2,3,4,4,4,1,3,5,3,101.835,380.138,381.978,41,20,21,9,5,5,5,1,4,5,38,38,37,3,The troubles with the pandemic are that people are dying.  That affects everyone equally.  I'm not even certain what this question is but it's kind of offensive.,41,41,41,6,6,3,6,6,3,1,0,No.
4/26/2020 8:57:22,4/26/2020 9:28:11,0,100,1849,1,4/26/2020 9:28:12, ,1,1,1,1,1,1,4,35.556,169.422,177.107,40, ,19,20,20,20,19,24,24,80,-8, , , , , , , , , , , , , , , ,14.167,206.456,217.141,78,12,12,12,12,12,12,13,12,8,8,8,12,12,12,12,11,4,7,4,4,5,4,7,4,4,4,4,4,4,7,5,4,5,4,4,7,4,6,4,6,7,4,5,4,8.679,351.664,360.7,150,3,2,3,2,3,2,4,2,3,2,4,2,3,3,3,3,3,2,16,16,16,5,5,5,4,2,4,4,3,4,2,2,4,4,2,27,1,4,3,2,2,3,2,12.337,438.973,460.475,130,2,12,20,23,1,1,0,8,7,1,1,5,1,1,1,1,3,2,37,37,37,39,38,39,16,12,4,6,4,3,4,3,4,4,4,4,4,4,2, ,3,Australia, ,1,32,4,1,1,1,1,1,0,0,0,0,1, ,1, , ,6,7,1,1,1,0,0,0, , , , , , , , , , , , , , , , , , , , , , , , , , , , , , , , , , , , , , , , , , , , , , , , , ,32,1,3,India,5, , , , , , , , , , , , , , , , , , , , , , , , , , , , , , , , , , , , , , , , , , , , , , , , , , , , , , ,1,1,1,1,1,1,4,45.421,116.479,124.709,9,1,20,19,20,19,19,40,40,80,80, , , , , , , , , , , , , , , ,6.636,195.095,199.131,40,12,12,12,12,13,12,12,12,4,4,4,4,3.601,130.811,138.202,17,4,1,5,1,4,3,3,1,3,1,3,1,3,2,3,3,2,1,5,5,5,5,1,4,4,1,3,3,4,1,2,3,1,15.024,279.876,285.229,53,20,23,1,1,1,1,1,1,1,37,37,37,4,Extroverts need people around them to communicate with.,40,39,39,5,5,5,5,5,1,3,0, 
4/26/2020 8:08:57,4/26/2020 8:21:59,0,100,782,1,4/26/2020 8:22:00, ,1,1,1,1,1,1,4,130.679,147.857,148.974,11, ,19,19,19,20,19,37,37,70,-40, , , , , , , , , , , , , , , ,3.914,86.179,87.771,32,15,15,15,16,15,16,15,16,8,8,8,15,12,11,11,11,4,6,4,8,5,7,7,4,4,5,8,7,6,7,5,5,7,8,4,8,6,4,4,8,7,4,4,8,1.624,127.752,128.182,61,3,5,4,1,3,1,4,2,4,2,3,5,4,4,4,1,5,3,17,17,15,4,4,4,4,2,3,4,3,7,1,7,2,4,4,26,1,1,7,1,3,5,1,4.141,176.539,177.28,58,2,2,23,21,0,0,0,11,11,5,5,5,4,1,5,1,4,5,39,40,37,40,41,41,17,11,1,1,1,7,1,7,1,1,1,5,5,1,1, ,1, , ,1,27,3, , , , , , , , , , , ,1, , ,6,5,1,1,1,0,0,0, , , , , , , , , , , , , , , , , , , , , , , , , , , , , , , , , , , , , , , , , , , , , , , , , ,27,2,9, ,3, , , , , , , , , , , , , , , , , , , , , , , , , , , , , , , , , , , , , , , , , , , , , , , , , , , , , , ,1,1,1,1,1,1,4,9.906,17.996,18.975,8,1,17,17,19,20,16,37,37,81,-37, , , , , , , , , , , , , , , ,1.904,73.537,78.786,25,15,13,15,16,15,16,16,15,7,5,7,5,5.079,41.335,46.982,14,3,5,1,4,2,4,3,3,3,4,4,2,5,4,3,1,3,1,5,4,5,4,4,3,3,3,7,1,4,1,2,5,2,6.272,96.31,97.341,42,22,22,9,5,5,9,10,10,1,39,39,39,3,"introverts still need to see people, just because they're 'introverted' doesn't mean they're loners.",38,38,39,5,4,6,7,6,1,3,0, 
4/26/2020 10:56:07,4/26/2020 11:07:01,0,100,653,1,4/26/2020 11:07:01, ,1,1,1,1,1,1,4,9.946,16.152,17.298,7, ,18,19,19,19,17,30,36,90,50, , , , , , , , , , , , , , , ,2.472,145.472,147.968,38,11,11,15,11,14,11,13,12,7,8,8,15,12,13,11,11,7,8,4,4,4,4,7,4,4,4,4,7,7,8,4,4,7,8,6,8,6,6,4,6,8,6,6,8,3.285,116.133,117.252,45,3,4,3,4,3,1,4,3,5,2,5,3,3,4,3,2,3,1,15,17,15,4,6,5,6,4,5,3,3,2,1,5,5,2,1,28,2,4,5,3,5,4,3,6.063,123.136,124.595,45,11,12,21,24,3,0,0,2,6,5,1,4,5,1,5,5,5,5,37,37,39,37,37,39,17,15,2,4,3,6,5,7,5,3,5,3,5,5,1, ,3,Republic of Ireland, ,1,26,4,1,1,1,1,1,0,0,0,0,9, ,1, , ,4,100,1,1,1,0,0,0, , , , , , , , , , , , , , , , , , , , , , , , , , , , , , , , , , , , , , , , , , , , , , , , , ,25,2,6, ,4, , , , , , , , , , , , , , , , , , , , , , , , , , , , , , , , , , , , , , , , , , , , , , , , , , , , , , ,1,1,1,1,1,1,4,16.13,20.817,21.888,8,1,18,20,18,19,18,21,35,95,42, , , , , , , , , , , , , , , ,1.826,106.939,108.437,24,11,11,15,11,12,11,12,11,4,6,4,6,2.969,30.498,31.4,12,4,3,3,3,3,1,4,2,3,1,4,1,4,2,3,1,3,1,4,3,5,6,3,4,3,3,5,1,2,3,5,4,2,4.515,156.38,161.297,41,20,24,1,1,4,5,1,1,1,37,39,37,4,I think a lot of more extroverted people are struggling with not having a social outlet or not having the same contact with people outside their homes. A lot of introverted people seem to be expressin,38,38,39,5,5,5,3,3,1,2,0,"I am feeling alright, but I am frustrated by government departments not getting back to me about applications I sent in before the pandemic hit regarding my employment and tax situation as well as my"
4/26/2020 7:49:39,4/26/2020 8:06:59,0,100,1039,1,4/26/2020 8:06:59, ,1,1,1,1,1,1,4,35.103,49.704,52.329,8, ,18,18,18,19,17,36,36,91,0, , , , , , , , , , , , , , , ,4.986,291.446,294.8,53,16,11,15,12,12,12,11,12,8,8,8,12,11,11,12,11,8,6,4,7,7,6,6,5,8,5,7,8,8,5,7,6,8,8,8,6,8,4,4,7,6,6,4,8,3.389,215.211,216.935,51,3,1,3,2,2,1,3,3,3,4,2,4,2,4,1,4,2,1,17,17,14,5,5,5,5,4,3,3,4,5,1,1,3,5,4,27,1,1,5,1,3,2,4,7.678,199.841,200.875,55,3,12,20,23,0,0,0,4,7,9,9,9,9,9,10,10,2,1,37,38,37,40,40,40,16,11,7,7,7,7,7,7,7,7,7,5,5,5,1, ,3,Austria, ,1,43,3, , , , , , , , , , , ,1, , ,5,10,1,1,1,0,0,0,"The ""how much time in percentage did you spend on these tasks"" was annoying because it did not show a sum (or percentages over the dots unless clicked) and it wanted me to click each 0% dot too.", , , , , , , , , , , , , , , , , , , , , , , , , , , , , , , , , , , , , , , , , , , , , , , , ,43,2,3,Austria,3, , , , , , , , , , , , , , , , , , , , , , , , , , , , , , , , , , , , , , , , , , , , , , , , , , , , , , ,1,1,1,1,1,1,4,9.679,21.504,22.815,7,1,16,17,17,15,15,24,32,100,100, , , , , , , , , , , , , , , ,2.233,306.094,307.897,31,16,15,12,15,15,15,11,15,7,8,8,8,6.217,88.945,89.659,19,3,1,4,4,1,3,5,3,2,5,4,3,4,5,4,4,5,2,6,6,5,5,2,3,1,3,6,1,1,1,2,2,3,10.126,147.432,148.146,45,21,23,9,9,9,9,9,10,10,39,37,39,4,"I can deal with being at home and not meeting people very well,  I hardly miss anyone, but I know from friends who need people around most of the day that they HATE this situation!",40,39,40,5,5,5,5,5,3,1,10,I am so so so so sick of those bloody masks! I also want to very badly go to the ocean!!!
4/26/2020 8:39:55,4/26/2020 9:01:34,0,100,1299,1,4/26/2020 9:01:35, ,1,1,1,1,1,1,4,138.959,148.823,150.251,7, ,16,19,19,19,20,14,35,92,20, , , , , , , , , , , , , , , ,196.231,334.766,341.139,30,13,12,13,12,13,11,11,12,8,8,8,11,11,11,11,11,8,8,4,4,7,4,7,4,7,7,5,7,4,8,7,4,8,4,8,8,7,6,7,8,8,4,4,7,6.304,253.772,255.152,46,5,3,5,1,4,1,4,1,3,1,4,1,5,2,5,2,4,1,17,17,16,3,4,4,5,1,4,3,1,6,5,5,5,2,1,27,2,4,7,1,4,5,1,3.826,189.128,189.867,43,12,14,21,23,2,2,7,4,6,4,1,4,4,1,1,1,4,3,38,41,37,39,40,39,16,16,4,4,3,5,6,5,3,4,6,6,6,2,2, ,1, , ,1,55,3, , , , , , , , , , , ,1, , ,6,40,1,1,1,0,0,0,no, , , , , , , , , , , , , , , , , , , , , , , , , , , , , , , , , , , , , , , , , , , , , , , , ,55,1,9, ,6, , , , , , , , , , , , , , , , , , , , , , , , , , , , , , , , , , , , , , , , , , , , , , , , , , , , , , ,1,1,1,1,1,1,4,125.704,143.014,144.192,8,1,17,19,19,20,19,9,36,95,0, , , , , , , , , , , , , , , ,11.017,187.613,189.975,18,12,11,13,11,12,11,11,11,4,5,5,4,8.186,57.892,102.27,12,5,3,5,1,4,1,4,1,4,1,3,1,5,2,5,1,4,1,4,5,4,4,1,5,4,4,6,5,6,1,2,5,1,6.604,246.829,250.459,37,21,23,1,1,4,1,1,1,1,38,40,37,3,"Extroverts miss other people more but will still be in touch with others through phone, messaging, social media. Introverts will still miss other people but are probably better with indirect contact,",40,40,40,6,6,5,3,3,1,3,10, 
4/27/2020 11:13:17,4/27/2020 11:25:32,0,100,735,1,4/27/2020 11:25:33, ,1,1,1,1,1,1,4,91.506,106.853,111.184,7, ,16,16,16,17,18,23,40,40,-20, , , , , , , , , , , , , , , ,8.837,116.466,117.519,28,13,14,15,14,15,14,12,11,7,8,8,12,13,12,12,11,7,5,4,4,4,5,5,4,4,4,4,5,7,5,4,5,4,4,6,6,4,4,4,5,5,4,4,4,3.969,141.813,142.607,47,1,3,1,4,1,1,2,3,2,3,3,3,3,3,2,2,2,3,17,16,15,3,3,3,1,4,2,1,4,1,2,2,2,5,2,28,1,7,4,3,1,2,4,7.724,158.728,159.877,47,12,12,23,21,0,5,0,4,3,10,10,10,10,10,10,10,5,5,40,39,40,38,38,38,14,13,2,2,4,6,6,5,4,4,4,2,2,2,1, ,1, , ,1,40,4,1,1,1,1,1,0,0,1,1,0, ,1, , ,5,100,1,1,1,0,0,0, , , , , , , , , , , , , , , , , , , , , , , , , , , , , , , , , , , , , , , , , , , , , , , , , ,40,2,9, ,4, , , , , , , , , , , , , , , , , , , , , , , , , , , , , , , , , , , , , , , , , , , , , , , , , , , , , , ,1,1,1,1,1,1,4,7.238,14.526,16.264,7,1,16,18,18,17,17,20,40,50,-40, , , , , , , , , , , , , , , ,2.185,99.853,101.537,23,13,13,13,14,15,13,15,11,5,6,5,4,3.168,39.048,39.923,14,1,2,1,3,1,1,2,3,1,2,1,3,3,3,2,2,1,2,2,2,2,1,4,2,2,3,1,1,1,2,1,1,4,4.354,86.597,87.398,37,23,21,9,9,10,9,9,9,9,39,38,38,3,"although extroverts have more interactions generally introverts may value them more as the ones they are comfortable, also tend to have a smaller group of friends to pool resources or ask for help",37,38,37,2,2,3,7,7,1,1,0,"worried I might be expected to send the kids back to school when it is not safe, and penalised if i don't."
4/26/2020 7:44:39,4/26/2020 8:06:46,0,100,1326,1,4/26/2020 8:06:46, ,1,1,1,1,1,1,4,77.73,84.09,90.262,7, ,16,16,16,17,16,35,35,60,-40, , , , , , , , , , , , , , , ,4.012,223.1,224.9,46,14,15,16,15,16,12,12,11,7,8,7,14,16,14,11,12,6,5,4,4,5,5,5,4,5,5,4,7,7,5,5,5,7,4,7,7,6,6,4,6,5,7,6,4,5.927,441.924,442.755,48,2,4,2,5,2,3,3,3,3,1,3,2,2,4,2,4,2,3,12,16,11,2,2,2,2,3,3,3,2,2,1,3,1,5,4,26,1,7,2,1,3,4,3,7.057,242.909,244.85,48,12,12,23,21,0,0,0,7,7,9,5,9,9,1,9,1,5,4,39,40,39,39,39,39,12,11,5,5,6,1,6,6,1,1,1,2,2,1,2, ,1, , ,1,42,4,1,1,1,1,1,0,1,1,0,1, ,1, , ,7,20,1,1,1,0,0,0,None, , , , , , , , , , , , , , , , , , , , , , , , , , , , , , , , , , , , , , , , , , , , , , , , ,41,1,9, ,4, , , , , , , , , , , , , , , , , , , , , , , , , , , , , , , , , , , , , , , , , , , , , , , , , , , , , , ,1,1,1,1,1,1,4,64.056,73.519,95.925,7,1,16,16,15,17,15,35,35,70,-30, , , , , , , , , , , , , , , ,7.242,298.75,301.219,50,11,13,16,12,13,12,11,12,4,7,4,7,20.696,87.255,89.629,20,3,4,3,5,3,3,2,1,2,1,3,1,2,4,2,4,2,3,3,2,2,2,2,3,3,1,5,1,5,3,3,3,4,5.2,179.332,180.708,39,22,21,5,5,5,5,1,5,4,39,40,40,4,Introverts are more used to spending time on their own so the lockdown does not cause as many lifestyle changes.,39,38,39,5,5,2,7,7,1,3,0,I am feeling a little depressed as I have only been out of our home once in almost 2 months. I feel as though I have lost my freedom.
4/28/2020 7:06:10,4/28/2020 7:18:28,0,100,738,1,4/28/2020 7:18:29, ,1,1,1,1,1,1,4,20.414,36.454,37.96,7, ,20,21,21,21,19,47,44,97,8, , , , , , , , , , , , , , , ,4.38,119.484,121.016,26,12,12,13,13,13,12,11,11,7,7,7,15,17,14,15,14,7,6,5,4,6,6,6,4,5,4,4,4,4,5,6,4,5,6,6,7,5,4,4,7,6,4,4,6,10.481,182.986,184.873,45,4,3,4,3,2,2,4,1,4,1,4,2,4,2,4,3,4,2,15,16,13,5,5,6,3,3,4,4,1,7,7,7,4,2,3,27,1,5,5,3,2,2,2,14.966,141.455,142.506,45,1,12,21,23,5,2,0,7,6,5,5,5,4,1,1,4,1,1,38,39,38,39,39,39,17,13,2,2,2,4,4,4,5,4,6,5,5,3,1, ,2, ,32,1,53,4,1,1,1,1,1,0,0,0,0,1, ,1, , ,9,5,1,1,1,2,0,0, , , , , , , , , , , , , , , , , , , , , , , , , , , , , , , , , , , , , , , , , , , , , , , , , ,52,2,10, ,5, , , , , , , , , , , , , , , , , , , , , , , , , , , , , , , , , , , , , , , , , , , , , , , , , , , , , , ,1,1,1,1,1,1,4,6.963,15.759,17.195,7,1,20,20,20,20,20,42,41,100,1, , , , , , , , , , , , , , , ,2.65,153.793,155.979,40,12,11,12,12,12,11,11,12,4,4,4,4,2.93,22.841,24.416,12,4,3,4,1,2,1,4,1,4,2,4,2,4,2,3,2,4,1,6,6,6,6,2,5,4,1,6,5,4,3,2,3,2,15.622,103.775,105.025,33,21,23,1,4,1,1,1,4,1,37,39,37,4,"Extroverts draw energy from being around other people; being locked down limits the opportunity to do so, so they probably feel the pressure more.",39,39,40,6,6,4,5,5,1,2,0,No frustrations; I'm upbeat and positive and productive.
4/26/2020 8:20:48,4/26/2020 8:33:27,0,100,758,1,4/26/2020 8:33:27, ,1,1,1,1,1,1,4,17.899,30.973,32.023,8, ,18,18,19,20,16,40,35,20,20, , , , , , , , , , , , , , , ,2.292,158.762,160.922,29,12,13,12,13,14,12,12,11,8,8,8,15,14,14,14,11,7,6,4,4,6,5,7,4,5,6,4,6,5,6,7,5,7,7,7,7,7,8,5,6,6,4,8,7,5.26,161.611,163.401,47,4,2,4,3,3,1,3,2,4,3,3,2,3,3,2,2,2,1,16,16,15,4,3,3,5,3,3,2,2,5,4,5,2,3,2,26,2,3,5,2,3,4,2,4.601,153.136,154.166,46,13,13,21,22,1,7,.5,5,7,4,5,5,4,1,4,1,2,4,39,39,37,39,39,40,16,15,3,4,3,5,4,6,5,4,5,4,4,2,2, ,1, , ,1,49,4,1,1,1,1,1,0,0,0,2,1, ,1, , ,6,15,1,1,1,0,0,0, , , , , , , , , , , , , , , , , , , , , , , , , , , , , , , , , , , , , , , , , , , , , , , , , ,48,1,9, ,4, , , , , , , , , , , , , , , , , , , , , , , , , , , , , , , , , , , , , , , , , , , , , , , , , , , , , , ,1,1,1,1,1,1,4,11.207,23.394,24.639,8,1,18,19,20,19,19,35,35,25,20, , , , , , , , , , , , , , , ,3.086,164.609,165.678,42,13,12,13,15,13,12,12,12,6,5,5,5,3.342,53.656,55.36,18,5,3,5,2,2,1,4,3,3,3,3,3,3,2,3,3,4,4,3,5,3,5,3,3,4,3,5,5,5,1,3,4,2,3.599,139.321,141.224,47,21,23,5,5,5,5,1,4,4,38,40,38,3,"Both types need company, just that each needs company on their own terms. Introverts prefer deeper contact with fewer people and extroverts less deep contact with a greater number of people",39,39,41,6,5,3,6,6,1,3,5,"I feel I am at best ""coping"". I actually do like working from home. It suits me. I feel equally as productive. However, I do not appreciate my social freedoms being removed from me. I did not choose t"
4/26/2020 22:37:47,4/26/2020 22:57:58,0,100,1211,1,4/26/2020 22:57:59, ,1,1,1,1,1,1,4,8.649,29.53,30.999,19, ,16,17,17,19,15,45,40,90,20, , , , , , , , , , , , , , , ,6.432,396.338,398.309,162,13,15,12,11,15,11,12,11,6,7,3,15,16,11,12,12,7,6,4,4,4,4,5,4,5,4,4,7,7,7,4,5,7,7,4,8,7,4,4,7,7,7,4,7,6.507,231.751,232.861,97,1,5,1,5,1,5,5,2,4,1,4,2,1,3,2,3,4,4,13,15,11,6,6,6,3,4,2,4,2,7,3,5,4,2,2,27,1,3,3,4,1,2,4,10.1,227.683,229.901,93,11,12,23,24,5,2,0,8,6,9,4,1,5,1,5,1,2,2,37,37,41,37,37,37,17,17,2,5,2,5,1,1,6,5,5,1,1,6,2, ,3,Poland, ,1,29,4, , , , ,1, , , , ,1, ,1, , ,5,9,1,1,1,0,0,0, , , , , , , , , , , , , , , , , , , , , , , , , , , , , , , , , , , , , , , , , , , , , , , , , ,29,1,3,Poland,4, , , , , , , , , , , , , , , , , , , , , , , , , , , , , , , , , , , , , , , , , , , , , , , , , , , , , , ,1,1,1,1,1,1,4,8.577,15.186,17.238,7,1,15,19,15,18,16,45,40,90,20, , , , , , , , , , , , , , , ,2.612,167.976,169.72,32,15,15,12,13,12,12,12,12,5,5,4,4,5.161,69.173,69.959,16,1,5,1,4,1,4,5,2,4,1,5,1,4,1,3,3,4,5,5,4,6,5,5,2,2,3,7,3,5,4,1,2,4,8.213,174.537,175.845,51,22,22,5,9,1,10,4,9,10,41,39,41,4,"Introverts are used to loneliness, so they actually have better time, (at least some of them).",38,38,37,4,3,5,5,7,1,3,5,"My wife (actually a concubine, and actually actually just a flatmate...) had an affair, inluding sex. Second time in last month. She does not know that I know."
4/26/2020 9:52:02,4/26/2020 10:02:11,0,100,609,1,4/26/2020 10:02:12, ,1,1,1,1,1,1,4,4.978,14.697,17.693,7, ,16,16,18,19,15,30,40,65,-32, , , , , , , , , , , , , , , ,4.994,99.916,101.144,25,12,14,15,14,13,14,15,12,8,8,8,13,13,11,11,11,6,6,4,7,6,5,5,5,7,6,7,4,7,5,7,5,5,8,8,7,7,6,5,6,6,6,4,6,4.665,129.777,131.257,45,3,4,4,2,3,2,2,4,2,3,2,4,4,2,3,2,3,1,17,17,13,4,4,5,3,3,3,2,2,2,1,2,3,4,2,26,1,5,6,2,3,4,2,4.943,138.392,139.859,45,3,11,21,23,0,1,0,7,6,5,4,5,5,4,5,9,5,5,38,39,37,39,40,39,13,13,3,3,3,5,5,5,5,4,4,5,5,5,2, ,2, ,46,1,53,4,1,1,1,1,1,0,0,0,0,1, ,1, , ,7,100,1,1,1,2,0,0, , , , , , , , , , , , , , , , , , , , , , , , , , , , , , , , , , , , , , , , , , , , , , , , , ,53,1,10, ,4, , , , , , , , , , , , , , , , , , , , , , , , , , , , , , , , , , , , , , , , , , , , , , , , , , , , , , ,1,1,1,1,1,1,4,4.596,12.507,14.111,7,1,16,17,17,20,16,50,50,70,-20, , , , , , , , , , , , , , , ,2.69,128.97,134.031,24,12,12,14,14,13,13,12,12,5,7,7,6,3.471,40.11,41.126,13,4,2,5,1,5,2,3,2,3,2,3,3,2,4,3,4,4,1,3,4,3,3,3,3,3,1,5,2,5,2,3,4,2,4.826,108.363,108.99,37,21,23,5,1,5,5,1,5,4,38,39,37,4,Extrovert need more socialization,40,41,40,5,5,4,5,5,1,1,5,Work issues. Family disputes. Life.
4/26/2020 8:34:35,4/26/2020 9:08:26,0,100,2030,1,4/26/2020 9:08:26, ,1,1,1,1,1,1,4,11.155,105.882,155.122,10, ,16,21,20,18,16,42,40,95,10, , , , , , , , , , , , , , , ,9.559,237.455,249.388,39,11,13,14,14,12,12,11,12,8,8,8,12,12,12,12,12,6,7,4,4,5,5,8,4,4,5,4,6,4,5,6,4,5,4,4,8,4,4,4,5,6,4,4,5,19.84,449.663,450.305,52,5,1,5,1,4,1,4,1,3,1,5,1,3,2,4,1,4,2,16,16,15,5,5,5,6,1,4,4,1,6,6,6,4,1,1,27,2,5,3,1,4,5,4,7.957,453.771,456.103,48,12,12,21,23,0,2,5,8,8,4,1,1,1,1,1,1,3,3,38,39,37,41,41,41,17,15,5,5,4,5,6,4,5,5,6,5,6,5,2, ,3,Italy, ,1,52,4, , ,1, ,1, , ,1, ,1, ,1, , ,7,15,1,1,1,4,0,0,"Interesting studies, I will participate in all following waves.", , , , , , , , , , , , , , , , , , , , , , , , , , , , , , , , , , , , , , , , , , , , , , , , ,51,1,7, ,3, , , , , , , , , , , , , , , , , , , , , , , , , , , , , , , , , , , , , , , , , , , , , , , , , , , , , , ,1,1,1,1,1,1,4,10.874,19.385,23.14,7,1,18,19,19,19,19,44,40,91,10, , , , , , , , , , , , , , , ,3.762,186.152,189.035,39,11,12,11,11,11,12,11,11,4,5,4,4,6.2,51.704,52.692,14,5,1,4,1,3,2,5,2,3,1,5,1,4,4,4,3,4,2,5,5,5,5,1,5,1,1,6,5,6,1,4,5,4,9.407,168.495,169.394,36,20,24,1,1,1,1,1,1,1,37,38,37,3,"I think that most people would return to their ""old"" life, before Covid-19 appears",41,40,40,5,5,3,5,5,1,1,25,"I'm very worried about national economic problems, because the level of pour debt will remain high for long time"
4/26/2020 12:45:16,4/26/2020 12:59:05,0,100,828,1,4/26/2020 12:59:05, ,1,1,1,1,1,1,4,2.336,6.36,8.179,7, ,19,19,20,20,20,40,40,90,50, , , , , , , , , , , , , , , ,3.567,107.757,109.033,34,11,12,12,11,11,12,11,11,6,8,8,15,15,13,11,11,7,7,4,4,4,4,7,4,4,4,4,7,4,7,4,4,6,7,7,8,4,4,4,7,8,4,4,4,4.347,152.132,152.787,52,1,1,2,1,2,4,4,2,1,1,4,1,2,3,1,5,2,4,16,17,13,5,5,5,4,3,4,3,1,7,7,7,5,1,2,28,1,5,1,4,1,1,3,3.178,148.524,149.069,55,11,12,21,23,0,0,0,7,7,4,1,4,4,1,4,4,3,2,37,37,37,37,37,37,16,17,5,6,6,2,2,1,5,5,5,4,4,4,2, ,3,France, ,1,34,4,1,1,1,1,1,0,1,0,0,1, ,1, , ,7,20,1,1,1,0,0,0,good luck with your study, , , , , , , , , , , , , , , , , , , , , , , , , , , , , , , , , , , , , , , , , , , , , , , , ,33,1,4, ,5, , , , , , , , , , , , , , , , , , , , , , , , , , , , , , , , , , , , , , , , , , , , , , , , , , , , , , ,1,1,1,1,1,1,4,4.827,8.218,9.958,7,1,16,17,18,16,17,50,40,82,10, , , , , , , , , , , , , , , ,1.92,101.668,102.6,36,12,12,13,12,13,11,12,11,5,6,4,6,5.207,45.191,47.273,16,3,1,3,4,2,1,4,3,5,2,3,2,3,5,1,2,4,4,2,4,3,2,3,3,2,2,6,6,6,4,1,1,3,5.172,363.385,364.384,45,21,23,5,9,9,10,5,5,9,38,37,38,4,I'm introvert and like being at home with 0 social interactions,37,37,38,3,3,5,6,5,1,3,0,exhausted and afraid of the covid
4/26/2020 8:04:54,4/26/2020 8:15:29,0,100,635,1,4/26/2020 8:15:30, ,1,1,1,1,1,1,4,4.431,8.578,13.515,7, ,19,18,19,18,18,40,40,50,0, , , , , , , , , , , , , , , ,8.788,101.337,102.549,35,15,14,15,17,15,15,13,12,6,7,7,12,12,11,12,11,7,5,4,6,4,6,7,4,4,4,6,5,4,6,4,5,6,6,5,7,5,4,4,6,5,4,4,6,4.042,126.495,127.613,49,3,3,3,1,2,1,2,3,2,1,3,3,5,2,3,1,3,1,15,15,15,3,3,3,6,3,3,3,1,5,6,4,3,5,3,27,1,4,2,2,3,4,3,3.159,170.381,171.03,49,11,13,21,21,10,10,4,4,7,4,4,4,4,4,4,1,2,2,38,38,38,39,39,39,15,14,1,1,1,7,1,1,1,1,1,3,3,3,2, ,1, , ,1,48,4, , , ,1,1, , , ,2,1, ,1, , ,4,100,1,1,1,0,0,0, , , , , , , , , , , , , , , , , , , , , , , , , , , , , , , , , , , , , , , , , , , , , , , , , ,47,1,9, ,6, , , , , , , , , , , , , , , , , , , , , , , , , , , , , , , , , , , , , , , , , , , , , , , , , , , , , , ,1,1,1,1,1,1,4,1.825,6.641,10.53,7,1,19,18,19,18,17,45,50,40,0, , , , , , , , , , , , , , , ,48.064,117.685,119.199,21,11,12,16,15,15,14,11,13,5,5,5,4,2.522,1708.74,1710.501,14,3,3,3,2,2,1,4,2,3,1,3,3,4,1,4,3,4,1,3,3,3,5,3,3,3,2,5,5,3,2,3,4,2,1.756,174.638,175.342,34,21,21,5,4,4,5,9,4,1,39,39,37,4,Extroverts need the company,38,39,39,3,3,2,5,5,1,3,0,feeling good at the minute but miss seeing friends
4/28/2020 4:04:04,4/28/2020 4:26:06,0,100,1321,1,4/28/2020 4:26:06, ,1,1,1,1,1,1,4,33.343,66.941,68.427,7, ,18,18,16,19,16,58,58,100,98, , , , , , , , , , , , , , , ,15.961,307.32,307.325,48,11,11,13,11,12,11,11,11,8,8,8,12,12,14,15,12,6,6,4,4,4,4,6,4,4,4,4,6,4,5,4,4,4,4,4,7,6,4,7,7,6,4,4,4,9.236,271.892,274.237,46,4,2,3,1,3,1,4,1,2,1,4,1,3,1,3,2,3,1,17,17,15,5,5,5,6,2,4,4,2,6,2,4,3,4,3,28,1,5,4,1,3,5,1,11.055,293.814,298.746,47,13,13,21,23,0,0,0,9,9,4,4,1,1,1,4,1,4,4,37,39,37,40,40,40,17,15,1,1,1,3,3,3,5,6,6,6,6,6,2, ,3,Portugal, ,1,38,4,1, ,1, ,1,1, ,1, ,1,1, , , ,6,50,1,1,1,0,0,0, , , , , , , , , , , , , , , , , , , , , , , , , , , , , , , , , , , , , , , , , , , , , , , , , ,38,1,3,Portugal,4, , , , , , , , , , , , , , , , , , , , , , , , , , , , , , , , , , , , , , , , , , , , , , , , , , , , , , ,1,1,1,1,1,1,4,16.623,37.258,40.018,8,1,16,18,19,20,16,58,58,90,92, , , , , , , , , , , , , , , ,3.185,175.065,184.27,31,13,12,14,11,12,12,11,12,4,4,4,4,4.981,186.559,188.081,13,4,1,3,1,3,1,4,2,3,1,3,1,3,1,4,3,3,1,6,6,6,5,2,4,3,2,6,1,5,1,3,4,1,7.558,259.384,261.177,35,21,23,4,4,4,4,1,4,1,37,37,37,4,"Because they need to talk to each others and and they don't have the family, friends or co-workers to talk as much as they normally would have",40,40,40,5,5,5,5,5,1,3,0, 
4/26/2020 9:03:26,4/26/2020 9:14:22,0,100,656,1,4/26/2020 9:14:23, ,1,1,1,1,1,1,4,8.887,14.095,16.227,7, ,19,19,19,18,19,45,45,90,21, , , , , , , , , , , , , , , ,6.825,95.685,99.105,29,16,14,15,16,16,14,16,13,8,7,8,17,15,14,14,12,7,8,5,8,6,5,7,6,5,6,8,8,7,7,6,5,8,7,7,7,5,4,7,8,7,6,5,8,7.063,164.166,165.346,46,2,4,2,4,2,1,4,3,3,1,3,3,3,2,2,3,2,2,11,11,12,4,5,5,2,3,3,3,4,4,2,2,4,3,3,27,5,4,7,3,4,3,4,8.716,145.796,146.824,46,3,11,22,21,9,3,1,3,4,9,9,9,9,9,5,5,3,4,40,38,39,37,38,39,16,16,6,6,7,6,6,6,4,4,5,5,5,4,2, ,2, ,44,1,34,4,1,1,1,1,1,0,0,0,0,1,1, , , ,8,100,1,1,1,3,3,1, , , , , , , , , , , , , , , , , , , , , , , , , , , , , , , , , , , , , , , , , , , , , , , , , ,33,1,10, ,4, , , , , , , , , , , , , , , , , , , , , , , , , , , , , , , , , , , , , , , , , , , , , , , , , , , , , , ,1,1,1,1,1,1,4,3.367,10.216,13.526,7,1,19,19,18,18,19,42,42,87,48, , , , , , , , , , , , , , , ,2.347,68.76,71.072,32,15,16,15,13,16,16,14,15,6,8,6,6,4.064,30.993,31.749,12,3,4,3,3,1,1,2,3,3,2,4,2,4,2,3,2,2,3,5,4,4,3,3,4,2,3,6,2,1,3,4,3,4,4.214,79.515,80.382,33,23,22,9,5,5,9,9,9,9,39,38,38,4,"introverts like being isolated, i imagine they are coping a bit better than most",38,38,38,4,4,3,7,7,1,2,1, 
4/30/2020 1:18:39,4/30/2020 1:35:23,0,100,1003,1,4/30/2020 1:35:23, ,1,1,1,1,1,1,4,12.247,22.102,27.895,7, ,17,18,19,20,18,20,25,70,-20, , , , , , , , , , , , , , , ,18.438,183.502,185.858,35,12,13,14,12,12,13,11,12,8,8,8,13,14,14,12,11,7,6,5,5,6,4,6,4,6,6,5,7,6,6,7,4,7,5,5,7,5,5,5,7,5,4,7,5,6.465,221.705,223.761,49,2,2,3,2,1,3,4,2,4,1,4,2,4,3,3,2,3,1,17,17,14,3,5,3,4,3,4,3,1,3,5,3,4,3,2,28,1,6,4,1,4,5,2,8.441,214.569,215.413,48,13,13,22,22,8,3,3,8,7,5,1,5,5,4,5,1,3,3,37,39,38,40,39,39,15,15,5,5,4,5,6,5,6,6,6,5,5,4,1, ,1, , ,1,35,4,1,1,1,1,1,0,0,2,1,1, ,1, , ,7,20,1,1,1,0,0,0,None, , , , , , , , , , , , , , , , , , , , , , , , , , , , , , , , , , , , , , , , , , , , , , , , ,34,2,9, ,4, , , , , , , , , , , , , , , , , , , , , , , , , , , , , , , , , , , , , , , , , , , , , , , , , , , , , , ,1,1,1,1,1,1,4,4.31,9.965,12.301,7,1,18,17,20,19,17,20,25,70,-20, , , , , , , , , , , , , , , ,3.299,199.499,200.812,56,12,13,13,12,11,12,11,11,4,6,4,6,4.22,58.574,59.416,13,4,1,4,2,3,2,4,3,4,2,4,3,4,4,3,2,3,1,6,6,6,3,2,4,4,2,3,6,6,1,5,5,1,11.474,153.827,154.66,33,22,21,4,1,5,5,4,5,1,37,39,37,4,"I think introverts are more used to inward thinking, and quiet times and time on their own. They may reflect more.",40,40,39,6,6,4,2,2,1,3,0, 
4/27/2020 1:15:41,4/27/2020 1:24:57,0,100,556,1,4/27/2020 1:24:57, ,1,1,1,1,1,1,4,16.452,25.282,25.596,9, ,19,20,19,19,17,32,45,80,-20, , , , , , , , , , , , , , , ,5.782,108.47,109.236,29,12,12,14,11,13,11,11,11,8,8,7,13,12,12,11,11,5,6,4,4,6,4,6,4,4,5,4,6,5,6,6,4,7,5,5,7,4,5,4,7,7,5,5,5,4.186,113.267,113.781,52,3,2,3,1,3,1,3,3,3,2,3,2,4,2,3,3,4,2,17,17,17,5,4,5,6,2,4,3,1,6,5,4,2,3,3,27,1,1,2,2,3,4,1,3.998,120.186,120.787,50,11,12,21,22,4,0,.5,5,8,1,1,1,1,1,4,4,2,2,37,38,37,39,39,41,14,12,3,3,2,5,3,3,5,5,5,6,6,5,2, ,1, , ,1,32,4,1,1,1,1,1,0,0,0,0,1, ,1, , ,7,90,1,1,1,0,0,0, , , , , , , , , , , , , , , , , , , , , , , , , , , , , , , , , , , , , , , , , , , , , , , , , ,31,1,9, ,5, , , , , , , , , , , , , , , , , , , , , , , , , , , , , , , , , , , , , , , , , , , , , , , , , , , , , , ,1,1,1,1,1,1,4,3.174,6.693,8.049,7,1,19,19,20,20,18,35,40,80,3, , , , , , , , , , , , , , , ,1.844,167.549,168.258,30,12,12,13,11,12,11,12,11,4,5,4,5,4.054,40.179,41.563,15,3,1,3,1,3,1,2,2,2,1,3,3,4,2,3,3,3,2,3,4,4,6,2,4,4,1,6,4,4,1,4,3,1,3.711,79.428,80.464,37,20,22,1,1,1,1,1,1,1,37,37,37,3,Extroverts need social contact to be happy more so that is a struggle for them but I think introverts can be more introspective in some ways and so may dwell in things more when they are alone or lone,41,41,41,6,6,5,5,5,1,3,0,Very few frustrations.  Overall content and happy with the situation I'm in.
4/26/2020 17:21:16,4/26/2020 17:45:48,0,100,1471,1,4/26/2020 17:45:49, ,1,1,1,1,1,1,4,38.495,57.845,60.057,7, ,16,17,19,17,17,32,40,70,-25, , , , , , , , , , , , , , , ,5.056,316.723,317.326,35,12,11,14,16,12,12,11,11,8,7,8,11,11,11,11,11,6,7,4,4,6,4,8,4,5,7,4,4,5,7,7,4,5,4,4,7,5,6,7,4,6,5,5,4,10.055,344.501,346.606,55,4,1,3,1,4,2,3,4,1,1,1,1,5,2,3,1,3,2,17,17,15, , , ,5,1,4,3,1,7,1,4,3,4,1,27,1,5,5,2,1,2,4,19.207,334.408,334.412,50,2,12,21,22,1.5,0,0,5,7,1,1,1,1,1,4,1,3,1,37,37,37,39,38,39,15,13,2,2,1,6,5,3,4,3,4,5,5,4,2, ,2, ,45,1,48,4,1,1,1,1,1,0,0,0,1,1, ,1, , ,7,20,1,1,1,0,0,0, , , , , , , , , , , , , , , , , , , , , , , , , , , , , , , , , , , , , , , , , , , , , , , , , ,48,1,10, ,4, , , , , , , , , , , , , , , , , , , , , , , , , , , , , , , , , , , , , , , , , , , , , , , , , , , , , , ,1,1,1,1,1,1,4,23.46,32.55,42.243,7,1,17,19,19,18,19,24,40,85,-20, , , , , , , , , , , , , , , ,3.094,254.836,260.236,31,11,12,13,11,13,12,12,11,4,4,4,4,5.3,71.504,74.214,13,4,1,3,1,2,1,2,1,1,1,3,2,4,2,2,1,2,3, , , ,6,2,4,3,1,3,3,6,1,1,3,2,15.026,211.628,211.635,35,22,21,1,1,1,1,1,4,1,37,37,37,4,"For a good number of introverts, this is not much different than what they would be doing otherwise. There is no great need to be near others or go outside.",38,37,40,5,5,6,5,4,3,2,41, 
4/27/2020 0:44:06,4/27/2020 1:05:18,0,100,1272,1,4/27/2020 1:05:18, ,1,1,1,1,1,1,4,28.12,35.262,40.81,7, ,16,16,17,18,16,40,40,65,-50, , , , , , , , , , , , , , , ,11.123,186.023,187.573,28,15,16,16,15,13,15,16,12,8,8,8,13,12,12,15,11,6,6,4,4,5,4,6,4,5,5,4,6,6,6,6,4,5,6,7,6,6,4,7,7,6,4,4,6,7.651,240.963,241.977,47,3,2,3,1,1,4,2,3,1,2,2,3,5,1,3,1,3,1,17,16,16,4,5,5,2,3,2,2,3,7,2,3,4,4,1,27,1,3,5,1,2,4,4,22.453,414.078,416.595,54,11,12,22,22,3,1,0,9,9,5,1,4,5,1,5,1,2,2,39,40,37,39,39,38,15,16,4,3,4,4,4,5,4,2,4,4,4,1,2, ,3,Poland, ,1,23,4, , , , ,1, , , , ,2, ,1, , ,6,10,1,1,1,0,0,0, , , , , , , , , , , , , , , , , , , , , , , , , , , , , , , , , , , , , , , , , , , , , , , , , ,22,1,3,Poland,2, , , , , , , , , , , , , , , , , , , , , , , , , , , , , , , , , , , , , , , , , , , , , , , , , , , , , , ,1,1,1,1,1,1,4,3.428,14.444,15.229,7,1,19,17,18,20,16,40,40,85,0, , , , , , , , , , , , , , , ,4.017,154.318,158.242,19,12,15,16,12,15,15,12,12,4,4,4,4,6,63.717,64.449,13,3,4,3,1,3,1,4,1,2,1,4,1,4,1,4,2,4,1,5,5,5,3,2,4,4,1,7,6,5,1,2,4,4,6.426,219.588,223.294,37,22,22,4,1,1,5,1,1,1,38,39,38,4,They have much higher need to socialize face to face than introverts,40,39,40,5,5,2,1,1,1,1,40, 
4/27/2020 10:57:50,4/27/2020 11:33:15,0,100,2125,1,4/27/2020 11:33:16, ,1,1,1,1,1,1,4,64.709,82.025,84.622,8, ,19,19,20,21,19,45,30,75,0, , , , , , , , , , , , , , , ,8.422,1035.874,1037.507,68,11,11,11,11,11,11,11,11,8,7,8,11,11,11,11,11,6,6,4,5,6,4,6,4,5,4,4,6,4,4,7,4,4,4,6,6,5,4,4,7,4,4,4,4,7.832,322.144,325.48,61,5,1,5,2,2,1,4,2,3,2,4,2,5,2,4,2,5,1,17,17,14,5,5,5,5,1,5,4,1,6,1,4,2,4,1,28,1,1,6,1,3,4,1,14.8,277.386,279.202,54,11,13,20,24,4,0,0,8,9,4,1,1,4,1,4,1,4,2,37,38,37,41,41,41,17,11,2,2,2,2,2,1,7,6,7,6,6,5,2, ,1, , ,1,61,3, , , , , , , , , , ,1, , , ,5,10,1,1,1,0,0,0, , , , , , , , , , , , , , , , , , , , , , , , , , , , , , , , , , , , , , , , , , , , , , , , , ,61,1,9, ,6, , , , , , , , , , , , , , , , , , , , , , , , , , , , , , , , , , , , , , , , , , , , , , , , , , , , , , ,1,1,1,1,1,1,4,3.403,40.46,43.234,10,1,19,19,20,21,20,40,30,85,10, , , , , , , , , , , , , , , ,3.896,554.739,557.227,50,11,11,11,11,11,11,11,11,4,5,4,4,6.274,48.324,51.207,16,5,1,5,2,5,1,5,1,4,2,5,2,5,2,5,3,5,1,6,6,6,6,1,5,5,1,6,4,4,1,4,5,1,1.656,176.552,177.957,43,20,23,1,1,1,1,1,1,1,37,37,37,3,"While introverts might be able to cope better with lockdown/isolation, I believe that many of the concerns around the pandemic would affect people regardless of whether they are introvert or extrovert",41,41,41,6,6,6,5,5,1,3,0,"Because my work is for the NHS and at present largely relates to the pandemic, I feel a strong sense of value in the work I am doing, and I feel valued by my colleagues and line managers"
4/26/2020 8:05:29,4/26/2020 8:22:25,0,100,1015,1,4/26/2020 8:22:25, ,1,1,1,1,1,1,4,8.775,17.415,18.96,7, ,16,19,21,21,21,34,28,3,0, , , , , , , , , , , , , , , ,19.742,138.538,139.183,28,12,11,17,11,11,11,11,11,6,8,8,17,16,11,11,11,8,8,4,7,4,4,8,4,4,4,8,8,4,4,8,4,8,4,7,7,4,4,4,8,4,4,4,4,4.381,369.572,370.437,50,5,3,4,1,4,1,4,1,5,1,5,1,5,1,5,1,4,1,17,16,17,6,6,6,4,1,5,4,1,6,5,7,5,1,1,28,1,7,1,1,4,5,1,14.097,243.872,244.324,48,12,13,21,24,10,3,0,7,5,1,1,1,1,1,1,1,4,3,37,37,37,37,37,41,15,15,5,4,4,4,4,4,6,3,4,3,3,3,2, ,3,Mexico, ,1,36,4, , ,1,1,1, , ,1,1,1, ,1, , ,8,30,1,1,1,0,0,0, , , , , , , , , , , , , , , , , , , , , , , , , , , , , , , , , , , , , , , , , , , , , , , , , ,37,1,3,Mexico,5, , , , , , , , , , , , , , , , , , , , , , , , , , , , , , , , , , , , , , , , , , , , , , , , , , , , , , , , , , , , , , , , , , , , , , , , , , , , , , , , , , , , , , , , , , , , , , , , , , , , , , , , , , , , , , , , , , , , , , , , , , , , , , , , , , , , , , , , , , , , , , , , , , , , , , , , , , , , , , , , , , , , , , , , , , , , , 
4/26/2020 9:54:12,4/26/2020 10:11:57,0,100,1064,1,4/26/2020 10:11:58, ,1,1,1,1,1,1,4,19.731,36.724,38.359,7, ,17,17,18,17,16,38,37,72,74, , , , , , , , , , , , , , , ,12.261,165.823,167.436,28,12,12,13,13,12,13,11,12,8,8,7,12,12,12,11,11,6,7,6,6,6,4,7,5,5,5,5,7,4,7,6,4,7,6,6,7,4,4,6,7,7,4,4,4,6.317,242.491,249.965,45,4,1,4,2,3,2,3,2,3,1,2,2,3,3,4,2,3,2,15,15,13,4,4,3,3,1,3,4,1,5,3,5,4,2,1,26,2,5,3,1,4,4,2,16.267,236.114,238.164,47,12,12,21,21,.5,0,0,8,6,5,1,1,4,1,1,1,2,4,37,38,37,39,39,40,16,15,4,4,3,5,5,4,4,4,4,3,4,3,2, ,3,Australia, ,1,55,4, , , ,1,1, , , ,2,1,1, , , ,7,5,1,1,1,0,0,0, , , , , , , , , , , , , , , , , , , , , , , , , , , , , , , , , , , , , , , , , , , , , , , , , ,53,1,3,Australia,5, , , , , , , , , , , , , , , , , , , , , , , , , , , , , , , , , , , , , , , , , , , , , , , , , , , , , , , , , , , , , , , , , , , , , , , , , , , , , , , , , , , , , , , , , , , , , , , , , , , , , , , , , , , , , , , , , , , , , , , , , , , , , , , , , , , , , , , , , , , , , , , , , , , , , , , , , , , , , , , , , , , , , , , , , , , , , 
4/26/2020 13:33:02,4/26/2020 13:53:23,0,100,1220,1,4/26/2020 13:53:24, ,1,1,1,1,1,1,4,110.024,115.214,116.406,7, ,19,19,20,17,18,41,41,71,-20, , , , , , , , , , , , , , , ,61.942,100.898,102.643,31,13,15,14,14,12,14,12,14,3,5,3,13,14,14,14,13,5,6,5,5,5,5,6,6,6,7,4,5,5,5,5,5,6,6,6,5,6,6,6,6,7,5,5,5,37.425,85.032,101.23,59,4,2,2,3,3,2,3,4,3,4,3,4,3,3,4,3,2,3,15,13,15,3,3,4,4,3,3,3,2,5,4,5,3,4,3,26,4,4,3,1,3,3,3,75.675,200.835,203.891,49,11,13,22,22,3,2,2,8,7,4,5,4,4,5,1,4,3,2,39,38,39,39,38,39,14,12,4,3,4,4,3,4,3,4,3,2,3,2,2, ,2, ,10,1,31,4,1, , , ,1,1, , , ,2,1, , , ,8,100,1, , ,19, , ,none, , , , , , , , , , , , , , , , , , , , , , , , , , , , , , , , , , , , , , , , , , , , , , , , ,31,1,10, ,5, , , , , , , , , , , , , , , , , , , , , , , , , , , , , , , , , , , , , , , , , , , , , , , , , , , , , , ,1,1,1,1,1,1,4,5.335,8.936,10.16,8,1,20,19,19,17,18,41,41,81,-9, , , , , , , , , , , , , , , ,9.206,33.878,36.063,26,14,16,15,15,14,13,14,15,5,6,6,4,.966,9.236,10.047,18,3,2,2,4,4,3,3,1,3,2,2,1,3,2,3,3,4,4,2,4,4,5,3,4,4,4,4,3,5,1,4,4,2,12.996,38.855,80.553,44,21,23,4,1,1,4,4,1,1,40,39,38,3,Boht play a role in striking conversations and controlling pandmeic./,40,40,38,4,3,4,5,4,3,1,67,None
4/26/2020 15:24:55,4/26/2020 15:42:10,0,100,1034,1,4/26/2020 15:42:10, ,1,1,1,1,1,1,4,4.632,24.093,25.649,18, ,19,18,20,19,17,32,38,89,22, , , , , , , , , , , , , , , ,6.085,194.246,195.095,67,11,13,13,12,12,11,11,15,6,7,8,14,15,12,15,11,6,6,4,7,6,6,7,4,6,5,7,5,4,6,5,4,7,7,6,8,7,4,7,7,6,4,4,7,33.472,213.554,214.875,78,5,3,4,1,4,1,4,2,5,1,5,2,4,4,4,3,4,3,16,17,14,5,5,5,3,3,4,3,3,6,5,7,4,2,2,27,3,6,5,3,1,2,1,11.168,187.083,189.497,80,13,13,24,22,4,6,3,11,11,5,9,4,5,5,9,4,3,4,38,38,38,39,41,40,17,17,4,4,2,2,2,2,4,4,5,4,4,3,2, ,1, , ,1,48,4, , ,1,1,1, , ,1,1,1,1, , , ,8,20,1,1,1,0,0,0, , , , , , , , , , , , , , , , , , , , , , , , , , , , , , , , , , , , , , , , , , , , , , , , , ,48,1,9, ,4, , , , , , , , , , , , , , , , , , , , , , , , , , , , , , , , , , , , , , , , , , , , , , , , , , , , , , ,1,1,1,1,1,1,4,1.716,13.426,14.487,11,1,17,17,19,18,18,32,37,80,20, , , , , , , , , , , , , , , ,2,186.7,187.321,45,11,11,12,11,14,11,11,13,6,5,6,5,3.249,46.872,47.933,20,2,3,4,1,3,1,5,3,5,1,5,3,4,4,4,2,5,3,5,5,5,3,4,2,3,5,6,6,6,3,1,3,2,7.955,386.446,387.284,54,22,21,5,5,5,5,4,9,5,38,38,38,4,I feel I am an introvert and so my work interactions have improved.,40,40,39,5,5,4,7,8,1,3,1,"I am working on a particlarly difficult and important NHS project, pretty much alone, and the pressure is beginning to get to me.  I feel ready to cry often, feel out of control, emotional.  I also ha"
4/26/2020 19:28:42,4/26/2020 19:33:48,0,100,305,1,4/26/2020 19:33:48, ,1,1,1,1,1,1,4,4.9,8.298,8.909,8, ,19,19,19,16,19,46,40,50,-41, , , , , , , , , , , , , , , ,2.322,53.925,53.928,29,12,16,15,14,16,17,13,15,7,7,8,11,11,11,11,11,7,5,7,5,7,7,5,5,7,7,6,6,6,6,6,6,7,5,7,7,5,5,6,8,5,5,6,6,1.345,50.539,52.636,48,5,1,3,3,3,5,2,3,4,4,4,3,2,4,1,3,2,5,16,13,11,3,5,4,2,2,3,2,5,6,1,3,2,5,2,27,1,3,2,1,4,3,4,5.275,72.385,73.362,47,12,13,24,20,7,0,0,8,5,10,10,9,10,10,9,9,4,5,38,40,39,40,40,40,17,14,6,4,5,4,6,4,5,4,2,3,3,4,2, ,2, ,11,1,24,4, , , , ,1, , , , ,3, ,1, , ,8,100,1, , ,3, , , , , , , , , , , , , , , , , , , , , , , , , , , , , , , , , , , , , , , , , , , , , , , , , , , ,24,1,10, ,4, , , , , , , , , , , , , , , , , , , , , , , , , , , , , , , , , , , , , , , , , , , , , , , , , , , , , , ,1,1,1,1,1,1,4,3.21,7.031,7.66,8,1,19,20,20,20,20,48,45,80,-19, , , , , , , , , , , , , , , ,3.726,50.162,51.423,26,14,16,16,15,15,13,14,15,5,5,6,5,24.043,31.913,32.635,12,3,2,5,5,2,2,4,3,3,2,3,2,2,4,4,4,3,2,5,5,4,2,4,4,2,3,6,4,6,2,2,4,1,4.655,32.778,33.522,37,23,22,9,5,5,9,9,9,9,39,37,37,4,They seem to struggle to connect more,40,40,39,5,5,5,9,3,1,3,11, 
4/26/2020 11:08:53,4/26/2020 11:33:47,0,100,1493,1,4/26/2020 11:33:47, ,1,1,1,1,1,1,4,17.787,26.487,31.344,9, ,17,19,19,20,20,40,38,90,20, , , , , , , , , , , , , , , ,10.636,375.127,376.562,117,12,13,14,12,12,11,12,12,7,8,7,12,12,11,12,11,7,6,4,4,4,4,6,6,4,4,4,7,4,6,5,4,8,6,5,8,5,4,4,8,6,4,4,4,7.616,304.847,309.1,109,3,3,3,3,3,2,3,1,3,1,3,2,3,3,3,2,2,3,16,17,12,3,4,3,6,3,4,3,2,7,6,6,2,2,2,28,2,6,6,2,5,4,2,7.737,376.314,377.703,91,12,12,20,23,0,3.5,1,9,9,4,1,1,1,1,1,4,3,3,40,40,37,38,38,39,16,16,2,2,4,4,4,4,4,3,4,4,4,2,1, ,1, , ,1,54,4,1,1,1,1,1,0,0,0,2,1, ,1, , ,9,15,1,1,1,0,0,0, , , , , , , , , , , , , , , , , , , , , , , , , , , , , , , , , , , , , , , , , , , , , , , , , ,53,2,5, ,4, , , , , , , , , , , , , , , , , , , , , , , , , , , , , , , , , , , , , , , , , , , , , , , , , , , , , , ,1,1,1,1,1,1,4,13.835,32.506,35.7,9,1,17,19,19,21,20,30,30,80,0, , , , , , , , , , , , , , , ,3.998,377.124,378.833,117,16,13,15,14,13,12,15,14,4,4,4,5,4.55,91.808,93.266,51,1,2,4,2,2,1,4,1,2,1,3,1,4,3,4,2,2,2,2,2,3,5,3,4,4,2,7,5,5,2,5,4,2,4.542,178.359,179.366,80,21,23,4,1,1,4,4,4,4,37,39,37,4,I think extroverts are more used to socialise so will feel more easily lonely without other people around,38,39,39,4,4,2,8,8,1,3,2,"I feel frustrated that it ever got this far, looking at other countries I'm sure it could have been handled better, as it is now it seems that there is no way to prevent lots of deaths and the economy"
4/27/2020 9:12:34,4/27/2020 9:22:20,0,100,586,1,4/27/2020 9:22:21, ,1,1,1,1,1,1,4,10.467,19.445,19.86,8, ,17,19,17,18,17,40,40,100,-20, , , , , , , , , , , , , , , ,4.65,129.251,130.784,28,15,15,15,15,17,15,16,16,7,8,8,12,12,12,13,11,4,4,4,4,5,4,4,4,4,4,4,4,4,5,5,4,5,4,5,7,4,5,4,6,4,4,6,4,4.072,135.837,136.841,46,2,2,2,3,2,1,3,1,2,1,3,1,5,1,1,1,2,4,16,17,14,3,3,3,5,1,4,4,1,6,1,6,3,4,2,27,1,3,2,2,1,3,2,2.873,126.641,127.517,48,2,11,21,23,0,0,0,9,9,1,1,1,1,1,5,1,1,1,38,37,37,40,39,40,13,12,6,6,3,7,7,5,6,6,6,5,5,5,2, ,2, ,5,1,30,4,1,1,1,1,1,1,0,1,0,1, ,1, , ,9,40,1,1,1,0,0,0, , , , , , , , , , , , , , , , , , , , , , , , , , , , , , , , , , , , , , , , , , , , , , , , , ,29,1,10, ,4, , , , , , , , , , , , , , , , , , , , , , , , , , , , , , , , , , , , , , , , , , , , , , , , , , , , , , ,1,1,1,1,1,1,4,2.788,12.317,12.688,8,1,20,19,20,19,19,40,40,90,-20, , , , , , , , , , , , , , , ,1.637,95.454,96.761,31,13,14,15,13,14,12,15,12,4,5,4,5,5.196,27.801,29.087,13,3,2,3,2,2,1,4,2,3,1,4,2,5,2,4,2,4,1,3,4,4,6,2,4,4,2,6,4,6,2,2,3,2,23.875,103.914,105.115,35,21,22,1,1,1,1,1,4,1,37,37,37,4,I feel that they need to connect with other people face to face in order to feel energized.,40,40,40,5,5,5,5,5,1,3,2,No.
4/26/2020 10:31:28,4/26/2020 10:47:11,0,100,943,1,4/26/2020 10:47:12, ,1,1,1,1,1,1,4,9.582,18.898,24.489,7, ,17,17,17,17,15,48,40,71,-19, , , , , , , , , , , , , , , ,15.705,341.803,344.483,43,13,15,15,13,15,14,13,13,7,8,8,12,12,12,12,12,6,5,5,4,5,6,6,5,6,5,4,6,6,5,5,6,6,5,6,7,6,6,6,6,7,7,5,5,3.701,167.903,170.261,49,2,4,2,3,2,3,2,2,2,3,2,3,3,4,2,3,2,3,16,15,14,3,3,2,3,4,2,3,3,5,3,3,2,4,3,26,3,4,4,2,4,4,3,5.557,147.463,148.87,46,11,11,21,22,3,0,0,6,4,5,5,5,5,4,5,9,4,4,39,40,39,38,39,39,13,13,5,5,4,6,5,7,4,4,4,3,3,3,2, ,2, ,31,1,51,4, , , , ,1, , , , ,2,1, , , ,9,10,1,1,1,2,0,0,None, , , , , , , , , , , , , , , , , , , , , , , , , , , , , , , , , , , , , , , , , , , , , , , , ,50,1,10, ,4, , , , , , , , , , , , , , , , , , , , , , , , , , , , , , , , , , , , , , , , , , , , , , , , , , , , , , ,1,1,1,1,1,1,4,13.232,22.893,25.162,8,1,16,17,17,17,15,40,40,61,-20, , , , , , , , , , , , , , , ,2.684,161.98,162.696,35,15,14,16,15,15,16,15,15,7,7,6,5,6.744,47.381,51,14,2,4,2,3,2,3,3,3,2,4,2,4,3,2,2,4,2,3,4,4,4,3,3,3,2,3,4,3,4,3,3,4,4,4.23,126.248,129.24,33,21,20,5,9,5,5,9,4,5,39,40,38,4,Since extroverts do not have anyone to talk to they feel easily frustrated.,38,38,38,2,2,1,4,4,1,3,0,The projects that I am working on need a lot of interaction with business teams and other members of my team. We usually sit together in a common room at work to improve communication and its been dif
4/26/2020 7:46:58,4/26/2020 7:56:57,0,100,598,1,4/26/2020 7:56:57, ,1,1,1,1,1,1,4,3.588,11.457,12.809,7, ,21,21,21,21,20,40,40,100,50, , , , , , , , , , , , , , , ,16.432,120.421,123.586,29,11,11,14,14,11,11,11,11,2,7,3,15,17,17,16,11,4,4,4,4,6,4,5,4,4,6,4,4,4,4,6,4,4,4,4,8,4,4,4,6,4,4,4,4,2.774,107.53,111.803,57,3,1,4,1,3,1,5,1,5,1,5,1,5,1,5,1,5,1,17,17,17,6,6,6,7,1,5,5,1,7,7,7,5,1,1,28,1,5,5,1,4,4,1,2.207,114.151,115.248,49,14,12,20,24,.5,1,.5,11,11,1,1,1,1,1,1,1,1,1,37,37,37,41,41,41,17,11,4,4,1,4,4,2,6,6,7,6,6,6,2, ,2, ,45,1,34,3, , , , , , , , , , , ,1, , ,8,30,1, , ,8, , , , , , , , , , , , , , , , , , , , , , , , , , , , , , , , , , , , , , , , , , , , , , , , , , , ,34,1,10, ,5, , , , , , , , , , , , , , , , , , , , , , , , , , , , , , , , , , , , , , , , , , , , , , , , , , , , , , ,1,1,1,1,1,1,4,4.091,21.228,24.358,7,1,21,21,21,21,20,40,40,100,66, , , , , , , , , , , , , , , ,6.418,129.605,132.289,26,11,11,14,13,11,11,11,11,4,4,4,4,2.132,39.223,40.946,15,4,1,4,1,3,1,5,1,5,1,5,1,5,1,5,1,5,1,6,6,6,7,1,5,5,1,7,7,7,1,4,4,1,7.008,101.633,105.016,39,20,24,1,1,1,1,1,1,1,37,37,37,4,I think people who are more extroverted might get bored if they don't get enough attention.,41,41,41,6,6,6,5,5,2,2,15, 
4/26/2020 15:50:26,4/26/2020 16:10:00,0,100,1174,1,4/26/2020 16:10:01, ,1,1,1,1,1,1,4,14.486,28.709,30.869,7, ,17,19,17,18,18,20,20,50,-29, , , , , , , , , , , , , , , ,9.663,331.108,333.025,31,14,12,14,12,14,13,12,14,6,8,7,14,12,11,11,11,7,5,4,4,4,4,6,7,6,4,4,6,5,7,4,4,5,5,5,8,4,4,4,6,4,5,4,5,10.002,254.157,255.711,45,3,1,1,1,2,1,1,1,1,1,1,1,3,1,1,1,4,2,17,17,17,2,2,4,7,2,4,3,2,1,1,7,3,5,1,28,5,6,5,2,1,2,4,8.652,217.707,219.289,43,13,12,24,22,4,0,0,8,9,1,1,1,1,1,1,1,3,4,37,39,37,41,41,41,15,15,3,3,2,5,4,3,6,6,6,4,2,5,2, ,3,Australia, ,1,57,4, , , ,1,1, , , ,1,1, ,1, , ,6,0,1,1,1,0,0,0, , , , , , , , , , , , , , , , , , , , , , , , , , , , , , , , , , , , , , , , , , , , , , , , , ,56,1,4, ,6, , , , , , , , , , , , , , , , , , , , , , , , , , , , , , , , , , , , , , , , , , , , , , , , , , , , , , ,1,1,1,1,1,1,4,7.215,23.118,26.349,7,1,17,16,17,20,19,10,20,100,0, , , , , , , , , , , , , , , ,5.558,184.932,188.448,20,11,11,12,11,11,11,11,11,5,5,4,4,7.901,67.633,69.28,12,1,1,4,1,4,1,4,1,3,1,5,1,4,4,5,3,3,3,4,4,5,7,2,5,4,1,2,6,6,2,2,2,3,13.691,206.644,208.202,35,22,23,4,1,1,1,1,1,1,37,37,37,4,"Extraverts are comfortable when others are watching them, which is incompatible with lockdowns.",40,40,40,5,3,5,9,9,1,1,80,Frustation about uncertainty of date for overseas trips.
4/27/2020 7:04:51,4/27/2020 7:22:12,0,100,1041,1,4/27/2020 7:22:13, ,1,1,1,1,1,1,4,22.05,44.533,45.882,8, ,20,20,20,20,18,8,49,72,-20, , , , , , , , , , , , , , , ,10.128,209.415,216.444,31,14,11,14,11,11,12,11,11,8,2,8,15,14,14,12,14,7,7,4,4,7,4,8,4,7,6,4,8,4,8,7,4,8,7,7,8,6,8,7,8,8,4,8,4,3.95,200.406,201.752,55,4,1,5,2,4,1,4,1,4,3,3,2,4,2,4,3,4,1,17,17,17,5,5,5,5,4,4,4,2,6,6,4,3,3,1,27,6,6,6,1,5,5,1,7.195,198.783,199.648,48,13,13,20,24,7,7,4,8,8,4,1,4,4,4,4,1,4,3,37,39,37,39,39,40,16,13,6,6,6,6,6,4,5,5,5,5,5,5,1, ,2, ,10,1,63,4, , , , ,1, , , , ,1, ,1, , ,6,100,1,1,1,0,0,0, , , , , , , , , , , , , , , , , , , , , , , , , , , , , , , , , , , , , , , , , , , , , , , , , ,60,2,10, ,5, , , , , , , , , , , , , , , , , , , , , , , , , , , , , , , , , , , , , , , , , , , , , , , , , , , , , , ,1,1,1,1,1,1,4,619.875,629.361,630.282,7,1,16,16,17,19,16,24,6,90,-40, , , , , , , , , , , , , , , ,3.896,129.57,133.013,41,11,11,11,11,14,11,13,12,6,5,6,4,2.995,70.395,71.49,15,1,4,1,5,1,4,4,3,3,1,3,3,1,5,2,1,3,5,1,1,1,4,3,3,2,4,5,6,4,1,4,4,1,4.824,117.82,118.761,36,20,21,9,9,9,9,1,5,1,37,37,38,3,For introverts it may it's too much aloneness and for extroverts the break was nice but they want more interaction,38,38,38,1,2,2,5,5,1,2,1,no
4/26/2020 8:03:00,4/26/2020 8:21:43,0,100,1123,1,4/26/2020 8:21:43, ,1,1,1,1,1,1,4,3.385,34.372,35.436,16, ,20,20,20,20,19,52,40,85,10, , , , , , , , , , , , , , , ,1.414,233.665,234.247,71,12,12,12,12,12,11,11,11,7,7,7,13,12,14,12,12,6,7,4,6,7,4,6,4,5,4,6,6,4,5,7,4,7,5,7,7,5,7,4,6,5,4,6,4,3.377,222.916,223.722,77,4,2,4,2,3,2,4,2,2,1,4,1,4,3,3,2,4,1,16,16,16,5,5,5,5,2,4,3,2,6,5,6,3,3,2,27,2,6,6,2,4,4,2,2.438,224.298,225.124,86,11,13,20,24,4,.5,0,7,7,1,1,4,4,1,4,4,3,3,38,37,37,39,38,39,12,15,2,5,3,3,4,4,6,7,6,5,5,4,2, ,2, ,48,1,51,4,1,1,1,1,1,0,0,0,0,1,1, , , ,9,20,1,1,1,2,8,2,"No, but thank you.", , , , , , , , , , , , , , , , , , , , , , , , , , , , , , , , , , , , , , , , , , , , , , , , ,51,1,10, ,5, , , , , , , , , , , , , , , , , , , , , , , , , , , , , , , , , , , , , , , , , , , , , , , , , , , , , , ,1,1,1,1,1,1,4,3.696,24.677,25.786,13,1,19,19,20,20,20,50,40,85,92, , , , , , , , , , , , , , , ,1.919,160.956,161.693,57,12,12,12,12,12,12,11,12,4,5,4,5,2.154,67.306,68.208,26,3,2,4,2,2,2,4,1,2,1,4,3,3,5,4,3,3,3,4,5,4,5,2,4,3,2,6,5,3,2,4,4,2,6.62,168.794,169.415,72,21,22,4,1,4,4,4,5,1,39,38,37,4,Introverts are happier by themselves,39,39,39,5,5,5,5,3,1,3,0,"Too much management by email - when you are working, email is checked periodically.  The assumption that email is an instant response is very flawed."
4/26/2020 8:17:23,4/26/2020 8:47:47,0,100,1824,1,4/26/2020 8:47:48, ,1,1,1,1,1,1,4,19.677,30.164,34.124,7, ,15,17,19,19,20,36,40,90,-20, , , , , , , , , , , , , , , ,8.798,460.692,471.201,45,12,13,15,12,12,12,11,11,7,8,7,12,13,11,12,11,8,6,4,4,7,4,5,4,5,6,4,6,4,5,7,4,6,5,8,8,5,4,6,6,5,4,4,6,10.104,259.939,266.117,49,4,3,3,1,3,4,4,4,3,2,3,3,3,4,4,3,4,2,16,17,15,5,5,5,2,3,4,3,1,5,7,7,4,4,1,28,1,3,5,2,1,4,3,3.367,503.259,515.153,54,11,12,21,23,6.5,1,2.5,9,7,4,4,5,5,1,4,5,4,2,38,40,37,40,41,39,16,13,5,4,3,4,4,3,5,4,6,6,6,2,2, ,2, ,20,1,43,4,1,1,1,1,1,0,0,0,0,3, ,1, , ,8,10,1,1,1,0,0,2,"I noticed on the section asking ""In the past week how often have you felt difficulties were piling up so high ...."" the middle option of ""sometimes"" has a typo of ""somethimes"". Good luck with the stud", , , , , , , , , , , , , , , , , , , , , , , , , , , , , , , , , , , , , , , , , , , , , , , , ,43,1,10, ,4, , , , , , , , , , , , , , , , , , , , , , , , , , , , , , , , , , , , , , , , , , , , , , , , , , , , , , ,1,1,1,1,1,1,4,5.904,12.801,15.657,7,1,15,17,19,19,17,40,42,85,-10, , , , , , , , , , , , , , , ,1.459,214.278,215.034,39,12,12,15,13,11,12,11,11,5,6,4,4,2.705,66.821,67.969,15,4,3,3,1,3,1,4,3,3,1,4,1,3,3,3,4,4,3,5,6,5,4,3,4,3,1,6,7,5,2,1,4,4,3.996,186.7,189.017,41,21,23,4,1,4,4,1,1,4,37,39,37,4,I think extroverts rely more on being around other people to improve their mood so they may struggle more with many people isolating themselves from others.,40,40,39,6,6,2,7,8,1,3,20,"I'm doing pretty well myself. Work has been ok, with most of the kinks worked out. I had a friend of the family pass this week and it is frustrating for me and his family that we are unable to have a"
4/26/2020 13:14:02,4/26/2020 14:14:23,0,100,3621,1,4/26/2020 14:14:24, ,1,1,1,1,1,1,4,9.663,18.438,21.853,8, ,15,16,17,17,16,32,45,95,0, , , , , , , , , , , , , , , ,163.7,225.071,230.727,25,11,11,17,11,11,12,11,11,8,8,8,12,14,11,11,11,5,6,4,4,5,6,6,4,4,5,4,6,5,6,6,6,7,4,6,6,5,5,6,7,6,4,6,4,37.351,761.622,787.631,23,2,1,3,2,2,1,4,1,3,1,3,2,3,4,3,3,3,3,17,16,13,3,4,4,2,2,3,3,2,5,4,4,3,2,1,27,1,5,7,1,3,4,1,1352.143,1399.721,1400.315,8,3,12,21,23,3,2,2,6,8,4,1,4,4,1,4,1,3,2,37,37,37,39,39,40,16,11,3,1,1,7,6,6,3,3,3,4,6,4,2, ,2, ,29,1,33,4, , , , ,1, , , , ,2, ,1, , ,6,10, , , , , , , , , , , , , , , , , , , , , , , , , , , , , , , , , , , , , , , , , , , , , , , , , , , , , , , ,33,1,10, ,3, , , , , , , , , , , , , , , , , , , , , , , , , , , , , , , , , , , , , , , , , , , , , , , , , , , , , , ,1,1,1,1,1,1,4,1164.387,1170.769,1172.247,2,1,16,15,16,17,15,33,45,95,65, , , , , , , , , , , , , , , ,1.839,521.168,522.151,31,11,11,16,11,11,11,11,11,4,5,4,4,16.767,16.767,17.264,1,3,2,3,3,2,4,4,3,4,1,4,2,2,4,2,3,3,3,3,4,3,1,3,3,3,3,2,1,2,1,4,4,1,254.838,322.207,322.615,14,21,21,4,1,1,4,1,4,1,37,38,37,3,Different struggles for each type of person.,39,38,38,3,4,4,5,5,1,1,14, 
4/26/2020 7:58:27,4/26/2020 8:23:13,0,100,1485,1,4/26/2020 8:23:13, ,1,1,1,1,1,1,4,.727,98.311,99.138,13, ,16,16,16,15,15,60,38,80,20, , , , , , , , , , , , , , , ,25.557,205.672,206.319,82,13,17,17,15,15,15,13,13,8,8,8,13,15,11,11,11,5,7,4,4,7,5,8,4,7,6,4,6,7,7,7,5,7,5,7,7,8,4,6,6,4,6,4,5,1.471,372.795,373.981,100,2,4,3,3,3,2,2,3,2,1,2,3,1,4,3,4,2,2,17,17,16,3,4,3,1,4,3,3,3,7,2,5,5,2,1,28,1,6,6,1,2,4,4,2.564,261.696,262.751,94,12,11,21,23,2,0,0,9,8,10,9,9,10,5,1,5,5,5,39,38,38,38,39,39,16,11,5,5,3,7,4,3,1,3,3,3,3,2,2, ,3,Spain, ,1,31,4, , , , ,1, , , , ,1,1, , , ,8,20,1,1,1,2,0,0,No, , , , , , , , , , , , , , , , , , , , , , , , , , , , , , , , , , , , , , , , , , , , , , , , ,30,1,8, ,5, , , , , , , , , , , , , , , , , , , , , , , , , , , , , , , , , , , , , , , , , , , , , , , , , , , , , , , , , , , , , , , , , , , , , , , , , , , , , , , , , , , , , , , , , , , , , , , , , , , , , , , , , , , , , , , , , , , , , , , , , , , , , , , , , , , , , , , , , , , , , , , , , , , , , , , , , , , , , , , , , , , , , , , , , , , , , 
4/26/2020 9:13:24,4/26/2020 9:29:08,0,100,944,1,4/26/2020 9:29:09, ,1,1,1,1,1,1,4,19.384,27.255,32.5,7, ,18,18,18,18,18,35,35,75,-20, , , , , , , , , , , , , , , ,11.165,181.918,188.501,28,12,12,15,12,13,12,13,13,8,8,8,15,14,14,13,12,7,7,6,4,5,6,7,7,4,5,4,7,7,7,5,6,7,6,7,7,6,5,5,6,7,7,6,5,5.36,171.896,172.9,45,2,1,2,3,2,3,3,3,3,3,3,3,3,3,3,3,3,3,13,16,13,3,3,3,3,3,2,3,3,4,3,5,3,4,4,26,3,3,3,4,1,2,3,3.188,194.332,195.3,46,2,12,21,21,14,0,0,3,2,5,5,5,5,1,4,5,4,4,38,38,38,38,38,39,13,11,4,4,4,4,4,3,4,4,4,2,2,3,2, ,1, , ,1,54,4,1, ,1,1,1,0, ,0,0,1, ,1, , ,8,10,1,1,1,0,0,0, , , , , , , , , , , , , , , , , , , , , , , , , , , , , , , , , , , , , , , , , , , , , , , , , ,53,1,9, ,5, , , , , , , , , , , , , , , , , , , , , , , , , , , , , , , , , , , , , , , , , , , , , , , , , , , , , , ,1,1,1,1,1,1,4,5.8,12.192,16.258,7,1,17,17,17,17,17,35,35,40,20, , , , , , , , , , , , , , , ,2.428,125.852,127.001,20,13,12,15,14,13,12,14,13,6,7,6,7,8.833,66.2,67.003,12,2,2,2,4,2,4,3,4,4,4,4,3,3,4,2,3,3,3,4,4,4,3,3,3,3,4,3,4,4,3,2,3,2,4.286,123.6,124.612,35,22,21,9,9,9,1,1,5,5,37,38,39,4,Extroverts need a lot of social contact to feel energized. Introverts feel worn out if they have too much social contact.,38,38,38,3,3,5,5,5,1,3,10,"Spending so much time with my partner is creating tension and conflict. Some of our shared projects are at a standstill due to the lockdown. This has created disagreements, frustration and irritabilit"
4/26/2020 15:43:05,4/26/2020 16:22:48,0,100,2382,1,4/26/2020 16:22:49, ,1,1,1,1,1,1,4,54.418,130.364,132.774,7, ,19,19,20,20,20,45,40,95,-25, , , , , , , , , , , , , , , ,29.637,353.618,371.96,32,13,12,15,12,13,12,12,11,6,8,7,11,13,11,12,11,7,6,4,4,5,4,7,4,6,5,4,7,4,7,5,4,7,5,4,7,5,5,5,7,5,4,5,5,23.448,514.919,516.64,45,3,3,4,1,2,2,4,3,3,1,4,2,4,2,3,2,4,2,16,16,12,5,5,4,6,1,4,4,2,6,4,5,2,4,3,27,2,4,5,2,1,4,2,48.314,660.377,661.983,45,12,11,21,22,1,1,0,8,9,4,1,4,1,1,1,1,3,2,38,39,37,38,38,40,16,16,4,4,2,3,4,1,6,6,5,4,4,5,2, ,3,Portugal, ,1,33,4, , , , ,1, , , , ,1, ,1, , ,5,10, , , , , , , , , , , , , , , , , , , , , , , , , , , , , , , , , , , , , , , , , , , , , , , , , , , , , , , ,33,1,3,Portugal,5, , , , , , , , , , , , , , , , , , , , , , , , , , , , , , , , , , , , , , , , , , , , , , , , , , , , , , ,1,1,1,1,1,1,4,37.977,62.015,64.535,7,1,19,18,19,19,19,43,40,75,-10, , , , , , , , , , , , , , , ,3.575,209.897,215.194,24,15,12,12,12,12,13,13,14,4,5,4,5,22.455,123.756,125.523,13,4,3,3,1,4,1,3,2,4,2,3,2,4,1,4,3,4,1,6,5,5,5,2,3,3,2,6,5,5,2,3,4,2,9.077,195.173,310.416,36,21,22,4,4,5,4,1,1,4,38,39,37,1,"While the extroverts are having problems because they are not fiscally with other people, they tend to interact more, even online, while the introverts tend to wait for others to approach them, in whi",40,39,39,5,5,3,3,3,1,3,0,"My main feelings are of restraint. While working from home is something that I like, I also miss the pleasure of getting out of the house and being in my workspace whenever I want."
4/26/2020 8:34:27,4/26/2020 8:53:32,0,100,1144,1,4/26/2020 8:53:32, ,1,1,1,1,1,1,4,3.812,15.557,15.929,9, ,18,19,19,18,19,45,45,100,77, , , , , , , , , , , , , , , ,10.291,252.238,253.05,32,11,15,13,14,14,12,13,11,8,8,8,11,11,11,12,11,8,7,4,4,6,4,6,4,6,7,4,6,6,7,8,4,7,7,7,7,7,4,6,7,6,4,4,4,6.768,280.813,282.138,57,4,1,4,1,4,2,4,1,3,1,5,4,5,4,5,1,4,2,17,17,17,6,6,6,6,2,4,4,3,6,1,5,3,4,1,28,1,5,5,1,3,4,1,3.293,287.914,288.269,51,2,12,20,24,2,0,0,10,7,9,4,4,4,4,9,1,3,3,37,41,37,39,39,40,15,15,4,4,3,5,6,5,7,6,6,5,6,2,1, ,3,greece, ,1,30,4,1,1,1,1,1,0,0,0,0,1, ,1, , ,5,100,1,1,1,0,0,0, , , , , , , , , , , , , , , , , , , , , , , , , , , , , , , , , , , , , , , , , , , , , , , , , ,29,2,3,Greece,4, , , , , , , , , , , , , , , , , , , , , , , , , , , , , , , , , , , , , , , , , , , , , , , , , , , , , , ,1,1,1,1,1,1,4,28.188,31.666,33.237,7,1,19,18,19,18,17,45,45,100,25, , , , , , , , , , , , , , , ,3.967,186.358,186.755,39,11,11,14,11,12,12,12,11,4,5,4,4,6.764,98.679,100.231,15,4,3,4,1,4,1,4,2,4,1,4,3,4,2,3,4,3,2,5,5,4,5,2,5,3,3,7,2,5,1,3,5,1,3.23,196.674,197.585,39,20,23,5,1,4,4,5,9,1,37,38,37,3,Socializing is a human need that doesn't fall into a category of human behavior.,41,40,40,6,6,4,5,4,1,1,70,"Quarantine did not change much for my routine but total isolation from friends and family was something new and communicating online was alleviating the ""trapped"" filling you get."
4/26/2020 9:36:51,4/26/2020 9:44:48,0,100,476,1,4/26/2020 9:44:48, ,1,1,1,1,1,1,4,2.689,5.254,6.098,7, ,17,19,19,19,19,35,35,70,-6, , , , , , , , , , , , , , , ,5.573,99.288,100.669,44,12,12,12,12,12,13,11,11,7,7,8,11,11,11,11,11,7,5,4,7,7,4,7,4,5,5,7,8,4,5,7,4,5,7,7,8,5,4,5,7,6,4,5,7,6.638,103.468,104.001,54,3,2,4,2,4,2,4,2,4,1,4,2,4,2,3,2,3,2,15,16,16,3,4,4,5,3,4,3,2,6,5,6,4,3,2,28,1,3,5,2,1,3,2,3.538,95.125,95.652,51,11,13,21,23,5,0,1,8,8,5,4,4,5,4,4,4,4,4,38,39,38,41,40,41,15,14,3,3,3,4,5,2,4,4,4,4,4,5,1, ,1, , ,1,26,4,1,1,1,1,1,0,0,0,0,1,1, , , ,6,80,1,1,1,1,0,0, , , , , , , , , , , , , , , , , , , , , , , , , , , , , , , , , , , , , , , , , , , , , , , , , ,25,2,9, ,5, , , , , , , , , , , , , , , , , , , , , , , , , , , , , , , , , , , , , , , , , , , , , , , , , , , , , , ,1,1,1,1,1,1,4,3.441,6.287,7.018,7,1,16,19,18,20,19,32,32,90,21, , , , , , , , , , , , , , , ,1.291,50.285,54.186,20,15,13,13,13,12,12,12,11,5,4,5,4,3.141,32.223,33.098,17,3,3,3,1,3,1,4,3,4,2,4,2,5,2,3,1,3,2,6,6,6,5,2,4,3,2,6,6,6,2,2,4,1,3.473,60.535,61.243,39,21,22,4,4,4,4,4,5,4,38,40,37,3,"I don't really believe in a hard line between introverts and extroverts, I think most people are a mix of both and are probably all struggling just as much.",40,40,39,5,5,4,5,4,1,2,1,Nah I'm good
4/26/2020 8:10:03,4/26/2020 8:30:25,0,100,1221,1,4/26/2020 8:30:25, ,1,1,1,1,1,1,4,4.861,15.561,17.174,7, ,17,19,20,19,19,40,40,85,20, , , , , , , , , , , , , , , ,19.985,223.642,224.513,31,11,11,13,12,12,11,12,11,6,3,7,11,11,11,13,11,7,7,4,4,5,4,4,4,4,4,4,5,4,5,5,4,6,8,7,8,5,4,4,7,6,5,4,7,2.046,378.952,379.516,69,4,1,3,1,2,1,4,2,1,2,4,1,5,2,3,3,4,1,17,17,15,3,6,5,6,1,4,4,1,6,5,5,4,3,2,28,1,2,3,1,2,4,2,10.245,274.542,275.325,61,2,3,21,24,1,7,0,7,8,4,1,5,4,5,1,1,1,1,37,37,37,39,39,41,16,14,3,3,1,5,5,4,7,6,6,5,5,6,2, ,3,Hungary, ,1,25,4, , , , ,1, , , , ,1, ,1, , ,7,30,1,1,1,0,0,0, , , , , , , , , , , , , , , , , , , , , , , , , , , , , , , , , , , , , , , , , , , , , , , , , ,24,2,3,Hungary,4, , , , , , , , , , , , , , , , , , , , , , , , , , , , , , , , , , , , , , , , , , , , , , , , , , , , , , ,1,1,1,1,1,1,4,4.15,9.459,12.479,7,1,21,20,21,20,20,40,40,90,50, , , , , , , , , , , , , , , ,2.56,155.096,156.619,23,12,12,15,13,11,12,12,11,4,4,4,4,36.65,80.842,81.806,21,3,1,3,1,2,1,2,1,2,1,4,1,5,1,3,3,2,1,2,5,4,5,1,4,4,1,5,5,5,1,4,4,1,9.192,387.933,388.685,51,20,24,1,1,1,4,4,1,1,37,38,37,4,"I feel like extroverts don't get that much out of online interaction as introverts, which is the main form of human interaction between friends during the quarantine.",40,41,40,5,5,6,3,2,1,3,5, 
4/26/2020 8:15:42,4/26/2020 8:46:50,0,100,1868,1,4/26/2020 8:46:51, ,1,1,1,1,1,1,4,16.177,58.85,64.427,7, ,20,19,18,19,20,38,36,81,13, , , , , , , , , , , , , , , ,10.236,185.255,186.201,31,12,14,12,14,12,12,13,12,7,8,7,15,13,11,12,11,7,7,4,4,5,6,7,4,4,6,4,6,4,7,6,5,6,7,5,7,5,4,7,7,7,4,4,7,24.177,406.065,408.025,44,3,2,4,4,3,2,5,2,4,2,4,3,3,3,4,4,5,2,16,15,15,5,5,5,5,2,3,4,1,6,2,7,4,2,2,28,2,3,1,2,4,4,2,9.133,819.454,823.555,48,3,12,21,23,1,0,1,8,8,1,1,4,4,1,5,1,4,5,37,38,38,39,39,40,15,12,4,3,4,4,5,5,6,4,6,4,4,3,2, ,1, , ,1,45,4,1,1,1,1,1,0,0,1,1,1, ,1, , ,8,5,1,1,1,2,0,0, , , , , , , , , , , , , , , , , , , , , , , , , , , , , , , , , , , , , , , , , , , , , , , , , ,44,1,9, ,5, , , , , , , , , , , , , , , , , , , , , , , , , , , , , , , , , , , , , , , , , , , , , , , , , , , , , , ,1,1,1,1,1,1,4,18.908,83.915,85.819,8,1,18,19,19,20,20,32,30,92,9, , , , , , , , , , , , , , , ,3.385,183.3,209.561,35,15,12,15,14,12,12,12,11,5,4,4,4,27.128,84.688,86.471,12,4,2,4,4,3,1,3,3,3,2,3,4,4,1,3,3,4,1,5,6,6,5,3,3,4,1,6,2,6,2,4,4,1,9.752,195.224,196.45,37,22,23,4,1,1,5,1,4,1,37,38,37,4,Extroverts want to see people but can't introverts are more happy to be alone.,39,39,38,3,4,2,7,8,1,3,1, 
4/26/2020 8:25:31,4/26/2020 8:35:17,0,100,585,1,4/26/2020 8:35:17, ,1,1,1,1,1,1,4,1.353,15.71,17.001,11, ,16,19,20,20,16,48,40,81,-8, , , , , , , , , , , , , , , ,4.127,115.319,115.344,52,12,12,12,12,12,12,12,12,6,8,8,11,11,11,12,11,6,6,5,5,5,5,7,5,5,6,5,7,5,6,6,5,7,7,7,7,6,4,6,7,7,5,4,7,6.777,119.028,120.1,78,4,2,4,2,2,2,4,3,4,1,5,2,3,3,3,3,4,2,17,17,16,5,5,5,6,3,4,4,3,6,6,6,3,3,3,28,1,3,2,2,2,3,2,7.559,141.232,142.588,67,12,12,22,22,4,6,6,11,11,4,4,4,4,4,4,4,4,4,37,37,37,39,39,39,16,16,5,5,3,4,4,2,6,5,6,5,5,5,2, ,1, , ,1,42,4,1,1,1,1,1,0,0,0,0,3,1, , , ,7,32,1,1,1,0,0,0, , , , , , , , , , , , , , , , , , , , , , , , , , , , , , , , , , , , , , , , , , , , , , , , , ,43,1,9, ,5, , , , , , , , , , , , , , , , , , , , , , , , , , , , , , , , , , , , , , , , , , , , , , , , , , , , , , ,1,1,1,1,1,1,4,3.76,27.894,29.027,11,2,19,20,20,20,19,32,31,70,18, , , , , , , , , , , , , , , ,4.507,104.801,106.716,38,13,13,13,13,13,12,13,13,5,6,5,5,4.934,45.157,46.522,17,3,2,3,1,3,2,5,3,4,1,5,2,4,2,4,2,5,2,6,6,6,4,2,4,4,2,6,6,6,3,1,1,3,35.581,143.652,145.827,52,21,21,4,4,4,4,4,4,4,38,38,38,3,"Neither affects your need for,social contact and,professional fulfilment, they are just different ways of expressing your innate requirements",40,40,40,5,5,5,5,5,1,3,0, 
4/26/2020 12:51:58,4/26/2020 13:19:06,0,100,1627,1,4/26/2020 13:19:06, ,1,1,1,1,1,1,4,6.273,23.121,40.786,7, ,16,18,18,19,18,40,40,60,0, , , , , , , , , , , , , , , ,8.349,221.691,227.866,55,12,14,12,13,12,13,12,11,7,6,6,16,15,15,12,13,6,5,7,4,7,4,6,4,5,6,4,6,4,5,6,5,7,6,6,7,6,7,5,7,7,4,6,4,7.086,543.539,550.181,52,4,1,4,1,4,1,5,2,4,1,4,2,4,1,3,3,4,1,15,16,16,5,5,6,6,2,1,1,1,5,2,4,3,2,1,27,2,5,6,1,4,4,4,5.248,365.319,366.266,44,12,13,24,23,4,2,1,7,9,4,1,1,4,1,1,1,4,3,39,38,37,41,40,41,13,14,2,3,3,2,2,3,2,2,3,4,2,3,2, ,1, , ,1,30, ,1,1,1,1,1,1,1,2,1,2, ,1, , ,6,3,1,1,1,2,2,3, , , , , , , , , , , , , , , , , , , , , , , , , , , , , , , , , , , , , , , , , , , , , , , , , ,30,1,9, ,4, , , , , , , , , , , , , , , , , , , , , , , , , , , , , , , , , , , , , , , , , , , , , , , , , , , , , , ,1,1,1,1,1,1,4,5.387,21.275,22.325,7,1,18,17,17,19,15,40,40,32,18, , , , , , , , , , , , , , , ,6.561,180.03,194.651,62,15,14,15,15,15,14,15,15,7,6,7,6,17.385,40.04,75.949,12,4,2,3,3,4,3,4,4,4,4,3,2,4,3,3,2,4,3,4,3,4,3,4,3,3,3,4,4,5,2,4,4,4,6.326,174.128,188.391,43,21,23,4,5,4,5,4,5,5,39,38,38,3,becuse that my opinon,39,38,39,3,4,3,6,7,1,3,23,i  am feeling optimistic about the future
4/26/2020 9:58:04,4/26/2020 10:24:50,0,100,1605,1,4/26/2020 10:24:50, ,1,1,1,1,1,1,4,813.273,828.453,829.686,7, ,19,19,19,18,20,40,52,69,-16, , , , , , , , , , , , , , , ,15.793,106.551,108.599,29,13,13,15,12,13,15,12,13,6,7,7,12,12,12,11,12,7,7,6,8,7,6,5,6,7,5,8,5,7,5,7,6,7,7,5,7,7,5,6,7,7,5,6,7,8.927,167.52,168.405,45,4,5,3,2,2,4,3,4,3,4,3,4,4,4,3,2,4,4,16,16,16,4,5,5,3,3,4,3,3,5,4,5,2,5,2,28,1,3,2,4,2,2,4,9.217,147.417,148.947,45,2,12,23,21,4,8,10,3,8,9,5,9,5,5,9,9,2,4,39,38,40,39,39,39,15,15,4,4,3,5,5,5,6,5,6,5,5,4,2, ,3,The Netherlands, ,1,34,4,1,1,1,1,1,0,0,0,0,3,1, , , ,6,20,1,1,1,0,0,0, , , , , , , , , , , , , , , , , , , , , , , , , , , , , , , , , , , , , , , , , , , , , , , , , ,35,1,3,The Netherlands,4, , , , , , , , , , , , , , , , , , , , , , , , , , , , , , , , , , , , , , , , , , , , , , , , , , , , , , ,1,1,1,1,1,1,4,44.359,53.201,54.341,7,1,17,17,18,19,17,26,36,75,-12, , , , , , , , , , , , , , , ,5.74,89.45,90.387,28,12,12,15,13,12,14,12,12,5,6,5,5,4.479,42.63,43.459,12,4,4,4,2,3,2,3,4,3,2,4,4,2,3,3,3,3,2,4,3,4,5,3,4,3,2,5,6,5,2,3,4,2,3.601,98.05,99.385,35,21,22,5, ,9,5,5,9,5,38,39,37,4,This pandemic requires social distancing. Extraverts are having a harder time with this than introverts.,39,39,40,4,5,3,6,6,1,1,25, 
4/26/2020 10:50:08,4/26/2020 11:05:09,0,100,900,1,4/26/2020 11:05:09, ,1,1,1,1,1,1,4,1.687,29.531,29.971,20, ,15,16,17,20,15,30,50,80,-30, , , , , , , , , , , , , , , ,1.499,178.12,178.951,64,13,15,15,16,15,15,12,11,7,8,7,11,11,11,11,11,8,6,4,4,7,5,7,4,8,6,4,8,5,6,6,4,6,7,8,7,8,4,5,7,6,5,4,7,6.028,207.663,208.775,82,3,4,3,3,1,3,2,3,1,4,2,3,4,3,3,3,2,2,17,17,12,2,4,2,2,3,3,3,2,2,1,1,2,5,3,28,5,4,6,2,2,3,4,4.042,191.12,192.176,89,12,14,21,22,3,3,0,4,6,1,4,4,1,1,5,1,4,3,39,40,38,40,38,41,15,11,4,2,4,6,5,7,2,2,4,4,2,1,2, ,2, ,21,1,50,3, , , , , , , , , , , ,1, , ,7,20,1,1,1,0,0,0,None, , , , , , , , , , , , , , , , , , , , , , , , , , , , , , , , , , , , , , , , , , , , , , , , ,50,1,10, ,5, , , , , , , , , , , , , , , , , , , , , , , , , , , , , , , , , , , , , , , , , , , , , , , , , , , , , , ,1,1,1,1,1,1,4,2.676,34.625,35.834,16,1,15,16,16,19,15,30,50,10,-40, , , , , , , , , , , , , , , ,2.801,148.652,149.386,51,13,11,15,13,16,13,12,12,4,7,4,5,4.388,73.955,75.605,28,3,4,1,4,1,3,3,5,3,1,4,4,4,4,2,3,2,4,3,4,3,2,3,3,2,3,1,1,1,2,2,3,4,5.703,161.673,162.73,68,23,20,5,1,1,4,1,9,1,39,41,39,4,Extroverts derive a good portion of their self identity from their interactions with other people. I would imagine that extroverted people would feel more lost and have greater cognitive dissonance as,39,39,39,5,5,2,7,5,1,3,0, 
4/26/2020 8:14:18,4/26/2020 8:39:38,0,100,1519,1,4/26/2020 8:39:39, ,1,1,1,1,1,1,4,58.422,81.558,83.331,8, ,18,19,19,19,19,30,50,57,-20, , , , , , , , , , , , , , , ,15.961,272.689,274.099,37,12,11,13,14,12,12,11,12,8,8,8,15,14,14,11,12,8,8,5,4,7,6,7,4,7,7,4,5,5,8,7,5,5,5,6,8,7,7,7,8,8,4,8,6,11.335,358.339,359.4,52,3,2,3,4,2,3,3,3,3,3,3,4,3,5,3,3,3,1,16,16,15,4,5,4,2,3,4,4,3,2,2,2,4,2,2,28,1,1,7,1,5,4,2,13.033,334.241,335.284,50,11,11,23,21,5,.5,0,7,7,9,9,10,5,5,9,5,5,3,39,40,37,39,38,39,16,16,4,3,2,3,7,5,4,3,4,5,5,2,1, ,2, ,33,1,43,3, , , , , , , , , , , ,1, , ,8,40,1,1,1,2,0,0,none, , , , , , , , , , , , , , , , , , , , , , , , , , , , , , , , , , , , , , , , , , , , , , , , ,43,2,10, ,4, , , , , , , , , , , , , , , , , , , , , , , , , , , , , , , , , , , , , , , , , , , , , , , , , , , , , , ,1,1,1,1,1,1,4,40.142,61.732,63.703,8,1,17,19,19,19,17,38,53,65,-2, , , , , , , , , , , , , , , ,2.462,195.709,196.577,51,12,11,13,14,15,11,11,13,5,4,5,4,13.474,115.279,126.463,13,3,1,3,3,2,1,3,2,3,2,3,4,3,5,3,3,2,1,3,5,4,3,3,4,4,2,1,1,2,2,5,5,2,7.908,200.114,200.96,39,24,21,4,4,4,4,4,5,1,38,39,37,3,I think both have struggles with it - but from different perspectives - if the introverts cannot live life vicariously through extroverts showing themselves living extroverted lives - this could be a,38,37,39,4,4,3,1,5,1,2,1,numb - information overload - like I need a vacation (not a stay-cation) - I'm exhausted
4/26/2020 12:17:01,4/26/2020 12:39:31,0,100,1349,1,4/26/2020 12:39:31, ,1,1,1,1,1,1,4,51.484,77.732,80.37,7, ,16,17,17,18,17,36,36,85,-8, , , , , , , , , , , , , , , ,9.983,251.638,257.4,39,15,15,15,14,15,14,14,15,5,6,6,14,12,14,12,11,6,5,4,4,5,4,5,4,5,4,4,4,6,5,5,4,5,4,5,6,5,5,4,5,4,5,5,4,5.642,251.433,254.208,48,2,3,1,2,1,3,3,1,2,1,3,3,3,3,3,3,2,2,16,16,13, , , ,5,2,3,3,2,7,5,7,3,5,4,27,1,3,3,4,2,2,4,13.334,342.582,342.597,48,12,11,21,23,2,2,1,8,7,4,4,4,5,1,5,4,4,4,39,38,39,38,38,37,15,12,4,4,4,5,5,5,4,4,4,4,4,2,2, ,3,Hungary, ,1,28,4,1,1,1,1,1,0,0,0,0,1, ,1, , ,5,100,1,1,1,0,0,0, , , , , , , , , , , , , , , , , , , , , , , , , , , , , , , , , , , , , , , , , , , , , , , , , ,28,1,3,Hungary,3, , , , , , , , , , , , , , , , , , , , , , , , , , , , , , , , , , , , , , , , , , , , , , , , , , , , , , ,1,1,1,1,1,1,4,24.638,102.869,107.299,8,1,17,17,17,17,16,36,30,95,0, , , , , , , , , , , , , , , ,5.274,187.651,191.094,31,15,16,15,15,15,15,14,14,5,6,4,4,7.861,85.046,86.366,15,1,3,1,3,1,1,3,5,2,4,3,3,3,3,3,3,2,1, , , ,4,3,3,3,3,7,1,5,4,2,2,4,11.798,240.525,240.54,42,21,23,5,4,4,5,4,5,4,39,39,37,3, ,38,38,37,3,3,2,5,5,1,2,0, 
4/26/2020 7:44:47,4/26/2020 7:59:06,0,100,859,1,4/26/2020 7:59:07, ,1,1,1,1,1,1,4,9.472,18.52,22.133,7, ,15,17,17,17,17,50,40,60,-20, , , , , , , , , , , , , , , ,6.399,131.917,133.419,27,16,15,14,17,17,16,12,14,8,8,8,14,13,11,11,11,7,5,4,5,7,8,6,4,6,6,4,5,6,5,7,7,5,5,7,8,7,5,5,8,5,6,5,5,5.009,219.981,220.821,55,2,5,2,4,2,5,3,4,3,5,3,4,3,4,4,3,3,4,16,16,16,3,3,3,2,5,1,2,5,7,6,6,1,5,2,26,4,4,4,4,1,4,5,11.945,183.385,187.851,55,2,12,24,23,.3,.2,.4,5,3,10,10,10,10,10,10,10,5,5,41,40,41,37,37,37,15,15,4,4,6,5,5,7,3,3,4,3,3,3,1, ,3,Italy, ,1,40,3, , , , , , , , , , , ,1, , ,4,61,1,1,1,1,2,0,Stay safe and hang in there!, , , , , , , , , , , , , , , , , , , , , , , , , , , , , , , , , , , , , , , , , , , , , , , , ,39,2,7, ,2, , , , , , , , , , , , , , , , , , , , , , , , , , , , , , , , , , , , , , , , , , , , , , , , , , , , , , ,1,1,1,1,1,1,4,13.058,19.16,22.034,7,1,17,17,17,17,17,50,40,72,0, , , , , , , , , , , , , , , ,2.069,86.751,90.801,18,16,16,15,17,17,17,16,14,7,8,7,7,29.18,65.324,66.259,14,2,5,1,4,1,3,2,4,2,4,3,3,2,5,2,4,2,3,2,2,2,3,4,1,2,4,5,5,5,4,1,3,5,8.135,128.55,129.861,41,22,21,5,5,5,9,5,9,9,41,39,40,4,"Extroverts are people that likes to surround themselves with friends and be the center of attention, if they're stuck at home, they can't be the protagonists.",38,38,38,3,3,3,7,8,1,1,9,I feel hopeless because I don't see the light at the end of the tunnel. Future is scary and the present is a nightmare. I wish I was gone painless in my sleep.
4/26/2020 12:01:50,4/26/2020 12:27:12,0,100,1522,1,4/26/2020 12:27:13, ,1,1,1,1,1,1,4,8.052,20.839,37.357,7, ,15,15,16,19,15,45,40,80,-20, , , , , , , , , , , , , , , ,14.18,294.803,307.803,29,11,11,12,11,11,11,11,11,8,8,8,17,17,14,11,11,8,8,4,4,4,4,6,4,8,4,4,8,4,8,6,4,8,7,8,8,6,8,4,8,7,4,7,4,7.424,273.789,275.171,44,5,1,5,1,2,1,4,1,5,1,5,1,4,1,3,1,4,1,14,17,13,5,3,5,5,2,5,4,1,1,7,7,5,1,1,28,7,7,1,3,1,3,3,12.555,367.152,371.698,50,13,2,20,23,7.5,0,0,8,5,4,4,1,1,4,5,1,5,5,37,37,37,39,38,39,14,16,4,2,7,7,7,7,6,6,7,1,1,6,2, ,3,BELGIUM, ,1,58,4, , ,1, , , , ,1, , , ,1, , ,9,90,1,1,1,0,0,0,I AM ENJOYING THIS SO FAR, , , , , , , , , , , , , , , , , , , , , , , , , , , , , , , , , , , , , , , , , , , , , , , , ,57,1,3,BELGIUM,4, , , , , , , , , , , , , , , , , , , , , , , , , , , , , , , , , , , , , , , , , , , , , , , , , , , , , , ,1,1,1,1,1,1,4,4.672,18.791,24.926,7,1,19,18,21,20,16,50,40,95,55, , , , , , , , , , , , , , , ,3.608,271.481,292.847,53,11,11,12,11,12,11,11,11,6,7,6,4,8.153,78.777,83.133,12,4,1,3,3,5,1,5,1,2,1,5,3,5,5,4,1,4,2,1,5,3,2,3,4,2,1,1,3,7,3,1,4,3,13.615,237.968,240.06,38,21,24,9,10,10,10,9,10,5,37,37,39,4,That sort of human beings needs more attention and care than the others,38,38,41,2,1,6,5,9,1,3,1,very tired more than usual it's a hard time because i don't know what the future might bring a sence of upcoming disaster
4/26/2020 8:00:44,4/26/2020 8:32:45,0,100,1921,1,4/26/2020 8:32:46, ,1,1,1,1,1,1,4,112.177,136.687,139.45,7, ,15,16,16,16,20,40,40,80,-20, , , , , , , , , , , , , , , ,5.037,370.537,403.768,63,13,17,16,15,11,17,15,11,8,8,8,12,14,12,12,11,8,6,4,4,6,4,6,4,4,6,4,4,4,4,6,4,4,4,8,8,6,4,6,8,6,4,8,4,4.484,216.471,217.371,49,2,3,1,1,1,1,3,5,4,1,3,4,4,5,1,3,3,1,17,17,17,5,6,6,1,4,4,2,3,7,7,7,5,1,1,27,5,6,5,1,2,3,4,4.811,663.796,667.17,50,12,13,21,20,3,1.5,1.5,8,8,9,5,5,9,1,9,5,5,5,39,39,37,39,39,39,17,16,3,3,1,6,6,5,5,5,6,6,6,6,2, ,3,Ireland, ,1,29,4, , , , ,1, , , , ,1, ,1, , ,8,10,1,1,1,0,2,2, , , , , , , , , , , , , , , , , , , , , , , , , , , , , , , , , , , , , , , , , , , , , , , , , ,29,1,6, ,4, , , , , , , , , , , , , , , , , , , , , , , , , , , , , , , , , , , , , , , , , , , , , , , , , , , , , , ,1,1,1,1,1,1,4,5.48,13.786,17.898,7,1,15,15,16,19,17,40,40,75,10, , , , , , , , , , , , , , , ,1.479,129.037,131.619,44,11,11,17,11,11,11,11,11,4,6,4,5,3.091,59.573,62.351,12,5,2,3,3,1,3,4,5,3,3,3,4,3,4,3,3,3,1,5,4,5,1,4,3,1,3,7,7,7,1,1,2,4,61.557,187.016,188.307,38,21,22,5,5,9,9,1,9,5,39,39,37,4,Introverts tend to like being by themselves while extroverts tend to need to be around others.,41,41,41,6,6,6,5,5,1,3,0,One of the biggest is I was diagnosed with Sleep Apnea and had been due to see an ENT to help with it but that was cancelled due to the virus and I don't know how long it will be until I can see him.
4/27/2020 17:04:54,4/27/2020 17:20:33,0,100,939,1,4/27/2020 17:20:34, ,1,1,1,1,1,1,4,17.757,26.567,27.495,7, ,19,18,20,20,17,40,37,79,-14, , , , , , , , , , , , , , , ,8.416,120.835,127.905,41,12,12,15,13,14,12,14,12,1,8,8,11,11,11,12,11,7,6,5,4,5,5,6,4,5,4,4,7,4,7,5,4,5,7,6,7,5,4,4,8,7,4,4,6,8.35,212.643,215.142,47,3,2,4,3,2,1,3,4,2,1,3,2,2,2,4,5,3,4,17,17,13,5,4,5,6,2,4,3,1,5,3,4,4,3,2,27,1,5,4,2,1,3,4,5.974,172.47,173.361,44,11,12,21,21,3,1,0,5,4,4,1,4,5,5,4,1,4,3,38,38,37,38,37,39,16,13,5,5,6,5,6,6,4,2,4,3,4,2,2, ,1, , ,1,63,4,1,1,1,1,1,0,0,0,0,3, ,1, , ,8,20,1,1,1,0,0,0, , , , , , , , , , , , , , , , , , , , , , , , , , , , , , , , , , , , , , , , , , , , , , , , , ,62,1,9, ,6, , , , , , , , , , , , , , , , , , , , , , , , , , , , , , , , , , , , , , , , , , , , , , , , , , , , , , ,1,1,1,1,1,1,4,3.258,9.931,10.879,8,1,18,17,20,19,16,42,41,70,-19, , , , , , , , , , , , , , , ,2.332,148.904,151.28,24,15,12,15,12,14,13,15,13,6,4,5,4,5.072,74.882,76.454,12,3,2,3,2,3,1,4,2,4,1,3,4,3,4,4,5,3,3,5,5,5,6,2,4,3,4,5,3,5,2,1,3,4,10.168,158.076,159.116,35,21,21,1,1,1,1,1,4,1,39,38,37,4,Introverts don't need company almost by definition,39,38,40,3,4,4,7,7,1,3,22,no
4/26/2020 17:33:02,4/26/2020 17:55:49,0,100,1366,1,4/26/2020 17:55:50, ,1,1,1,1,1,1,4,33.375,52.291,54.655,8, ,19,18,20,18,17,41,40,80,0, , , , , , , , , , , , , , , ,10.235,257.628,258.7,38,12,11,15,13,14,12,11,11,8,8,8,15,12,11,11,11,6,6,4,4,4,4,7,4,4,4,4,6,4,4,5,4,7,4,4,4,4,4,4,7,4,4,4,4,189.198,406.72,407.601,57,2,2,3,1,3,1,3,1,1,1,2,1,3,2,4,3,3,1,16,17,12,5,5,5,7,2,4,4,1,7,5,7,5,4,2,28,1,7,1,2,2,3,1,15.339,257.104,258.852,56,12,13,22,21,3.5,0,0,8,6,1,1,1,1,1,1,1,3,3,37,38,37,40,40,39,14,13,6,5,4,5,4,6,3,3,3,3,3,1,2, ,3,New Zealand, ,1,41,4, , ,1, ,1, , ,2, ,1, ,1, , ,8,60,1,1,1,0,0,0, , , , , , , , , , , , , , , , , , , , , , , , , , , , , , , , , , , , , , , , , , , , , , , , , ,40,1,3,Malaysia,4, , , , , , , , , , , , , , , , , , , , , , , , , , , , , , , , , , , , , , , , , , , , , , , , , , , , , , ,1,1,1,1,1,1,4,15.513,29.497,31.675,7,1,18,18,19,19,18,41,41,84,91, , , , , , , , , , , , , , , ,5.23,123.467,126.548,23,13,14,14,14,14,12,11,13,4,4,4,4,5.177,160.824,161.963,18,3,1,4,1,5,1,4,1,3,1,3,1,5,1,5,4,3,1,6,6,6,7,2,5,5,1,7,7,6,2,3,3,1,6.796,329.441,331.401,39,21,24,1,1,1,1,1,1,1,37,38,37,4,they don't get their chance to socialize with others. they are confined to themselves.,40,40,40,4,5,4,5,5,1,1,50, 
4/26/2020 10:20:54,4/26/2020 10:29:40,0,100,526,1,4/26/2020 10:29:41, ,1,1,1,1,1,1,4,3.817,21.236,24.489,25, ,19,19,19,17,16,2,36,2,-74, , , , , , , , , , , , , , , ,.928,56.044,56.442,63,15,13,16,14,16,14,15,14,8,7,7,16,15,13,13,12,6,5,6,7,7,6,5,6,5,5,8,7,7,6,5,7,6,7,6,6,8,6,6,8,6,6,6,7,.715,109.531,110.581,132,3,4,1,3,3,5,2,2,1,3,2,5,4,3,1,3,2,4,16,12,11,4,3,5,1,4,3,4,5,1,1,2,3,4,1,27,5,7,4,2,2,4,2,.401,106.15,106.997,131,11,3,24,20,1,1,1,5,3,5,5,5,10,5,9,5,3,2,39,37,39,38,39,39,16,15,6,5,3,5,3,4,4,6,7,3,2,3,1, ,2, ,26,1,32,4,1,1,1,1,1,0,0,2,0,1, ,1, , ,6,23,1,1,1,0,0,0, , , , , , , , , , , , , , , , , , , , , , , , , , , , , , , , , , , , , , , , , , , , , , , , , ,32,2,10, ,3, , , , , , , , , , , , , , , , , , , , , , , , , , , , , , , , , , , , , , , , , , , , , , , , , , , , , , , , , , , , , , , , , , , , , , , , , , , , , , , , , , , , , , , , , , , , , , , , , , , , , , , , , , , , , , , , , , , , , , , , , , , , , , , , , , , , , , , , , , , , , , , , , , , , , , , , , , , , , , , , , , , , , , , , , , , , , 
4/27/2020 10:39:24,4/27/2020 10:53:04,0,100,819,1,4/27/2020 10:53:04, ,1,1,1,1,1,1,4,5.663,18.355,19.277,8, ,15,17,19,17,20,40,40,80,-25, , , , , , , , , , , , , , , ,5.979,219.473,220.287,49,11,11,11,12,15,11,13,12,3,7,6,11,16,11,12,11,6,7,4,4,5,4,8,4,4,4,4,4,4,8,6,6,4,8,5,8,6,4,4,8,7,4,4,7,5.305,188.916,189.845,51,5,1,5,1,5,1,5,1,3,2,5,1,5,1,3,1,4,1,17,17,17,6,6,6,7,2,5,4,1,7,4,7,3,2,2,28,1,7,4,2,1,4,2,2.358,157.579,158.588,47,12,12,21,23,8,2,0,9,4,4,1,4,1,1,1,1,2,1,37,40,37,41,41,41,17,17,5,4,5,7,7,7,7,7,7,6,6,6,2, ,3,Canada, ,1,35,4,1,1,1,1,1,0,0,0,0,1, ,1, , ,9,80,1,1,1,2,0,0, , , , , , , , , , , , , , , , , , , , , , , , , , , , , , , , , , , , , , , , , , , , , , , , , ,34,1,5, ,3, , , , , , , , , , , , , , , , , , , , , , , , , , , , , , , , , , , , , , , , , , , , , , , , , , , , , , ,1,1,1,1,1,1,4,3.613,15.411,20.641,7,1,16,18,17,19,20,40,40,80,0, , , , , , , , , , , , , , , ,3.041,137.864,139.648,27,12,11,13,12,12,11,12,13,6,4,6,4,4.833,62.258,69.988,13,5,1,5,1,5,1,4,2,4,1,4,2,5,1,5,1,4,1,6,6,5,7,4,5,5,1,7,5,7,1,2,4,2,5.851,149.513,152.426,38,21,23,1,1,1,1,1,1,1,37,39,37,4,people who thrive around other people are probably struggling when that is taken away,40,39,41,6,6,2,5,5,1,3,1,I'm getting annoyed at the lack of basic services during this lockdown.
4/27/2020 6:32:16,4/27/2020 6:44:49,0,100,753,1,4/27/2020 6:44:50, ,1,1,1,1,1,1,4,2.844,6.073,9.419,7, ,16,17,16,18,16,38,38,75,0, , , , , , , , , , , , , , , ,5.046,145.861,147.845,36,13,13,14,15,14,13,12,15,7,8,8,15,12,14,12,14,7,6,5,7,5,5,5,4,5,6,6,6,4,6,6,4,7,7,7,7,6,4,5,6,6,4,4,6,7.526,161.874,163.121,45,3,2,4,3,3,3,3,2,4,1,4,2,2,2,4,4,2,3,16,17,15,4,4,4,5,2,4,3,2,4,5,5,2,2,2,27,2,4,4,2,4,3,3,3.676,143.581,144.424,46,12,12,21,22,1,1,3,9,7,4,4,4,4,5,5,1,5,4,38,38,37,41,40,40,15,14,4,4,4,4,4,3,4,4,4,4,5,2,2, ,1, , ,1,32,4,1,1,1,1,1,0,0,0,0,1, ,1, , ,8,25,1,1,1,0,0,0, , , , , , , , , , , , , , , , , , , , , , , , , , , , , , , , , , , , , , , , , , , , , , , , , ,32,1,9, ,4, , , , , , , , , , , , , , , , , , , , , , , , , , , , , , , , , , , , , , , , , , , , , , , , , , , , , , ,1,1,1,1,1,1,4,6.056,10.465,12.85,8,1,16,16,17,17,15,38,38,70,-30, , , , , , , , , , , , , , , ,1.527,76.273,79.239,25,13,13,16,16,13,15,13,15,6,6,5,6,2.915,47.378,48.749,12,3,2,3,4,4,4,4,2,4,1,4,2,2,2,2,4,2,4,3,3,2,4,3,3,3,2,5,6,6,2,4,3,3,5.31,155.465,156.299,36,20,23,4,5,5,5,5,5,5,38,39,37,3,"I believe regardless of how you are, you're currently missing spending time with family and friends.",38,39,39,2,2,2,5,5,1,3,0, 
4/26/2020 9:02:33,4/26/2020 9:13:51,0,100,678,1,4/26/2020 9:13:52, ,1,1,1,1,1,1,4,11.417,19.787,21.102,7, ,16,16,16,16,16,47,29,30,-34, , , , , , , , , , , , , , , ,22.121,119.803,120.61,26,15,13,15,13,15,12,16,15,7,8,7,14,12,15,12,12,6,7,6,4,7,5,5,6,5,5,4,6,5,7,7,6,6,5,7,7,6,7,7,6,7,6,7,5,8.302,141.316,141.998,50,3,4,3,3,3,4,3,3,2,2,2,3,3,3,3,4,3,3,12,15,13,4,3,4,2,4,2,2,3,2,2,2,3,4,4,25,3,4,5,2,2,2,2,8.787,184.433,185.255,48,11,2,22,21,6,2,0,5,3,9,9,9,9,5,5,5,4,3,39,39,37,37,38,39,13,14,5,4,4,3,4,6,3,3,3,4,4,4,1, ,2, ,23,1,29,4, ,1, , ,1, ,1, , ,1, ,1, , ,7,26,1,1,1,0,0,0, , , , , , , , , , , , , , , , , , , , , , , , , , , , , , , , , , , , , , , , , , , , , , , , , ,28,2,10, ,5, , , , , , , , , , , , , , , , , , , , , , , , , , , , , , , , , , , , , , , , , , , , , , , , , , , , , , ,1,1,1,1,1,1,4,2.818,7.725,8.731,7,1,16,17,16,16,16,45,40,21,76, , , , , , , , , , , , , , , ,3.27,69.36,75.832,20,14,15,14,15,13,13,13,15,5,6,5,6,2.351,10.796,13.925,12,3,2,4,4,3,3,3,2,4,2,2,3,2,2,4,2,3,3,2,4,3,3,4,3,2,2,3,4,3,3,3,4,2,3.768,36.497,37.492,34,22,21,4,5,5,4,9,9,9,39,39,38,4,extroverts are more outgoing. they love to spend time networking with people and other activities. in pandemic times when such people are stuck at home it becomes very difficult for them to cope with,39,38,38,3,2,3,4,7,1,3,49, 
4/26/2020 7:43:11,4/26/2020 8:04:06,0,100,1254,1,4/26/2020 8:04:06, ,1,1,1,1,1,1,4,192.802,211.577,212.939,7, ,15,17,17,16,17,40,40,70,0, , , , , , , , , , , , , , , ,11.403,156.924,158.891,31,15,16,15,13,14,15,13,12,7,8,7,14,14,11,11,11,6,6,4,4,4,4,7,4,4,4,4,4,4,6,5,4,5,7,6,7,6,4,6,7,7,4,4,4,10.893,272.59,273.526,49,3,1,4,1,1,2,4,4,3,1,4,4,4,3,3,4,3,1,16,17,16,4,5,5,5,3,4,3,3,1,2,5,3,4,2,27,1,4,2,1,2,4,3,7.424,240.937,242.033,46,11,1,24,21,2,0,0,7,6,9,5,4,5,5,10,1,4,3,39,41,38,39,38,39,14,11,4,3,3,6,6,7,6,5,6,4,4,4,2, ,3,Portugal, ,1,39,4,1,1,1,1,1,0,1,1,0,1, ,1, , ,6,10,1,1,1,0,2,0,No., , , , , , , , , , , , , , , , , , , , , , , , , , , , , , , , , , , , , , , , , , , , , , , , ,38,1,3,Portugal,5, , , , , , , , , , , , , , , , , , , , , , , , , , , , , , , , , , , , , , , , , , , , , , , , , , , , , , ,1,1,1,1,1,1,4,12.214,27.566,30.527,7,1,15,18,19,16,18,40,40,80,0, , , , , , , , , , , , , , , ,3.072,175.469,177.561,29,14,15,15,13,12,13,13,13,4,4,4,4,8.025,60.328,61.572,13,5,4,3,2,3,3,4,2,4,1,3,3,4,3,4,4,3,2,5,5,5,4,4,3,2,3,5,2,5,3,1,4,3,20.603,168.843,169.712,36,24,21,4,5,5,9,9,10,1,39,41,37,3,"Although introverts may not miss being with other people so much, they miss being able to go out, go shopping, do their day to day.",39,38,39,3,5,4,5,5,1,1,1,No.
4/26/2020 8:09:49,4/26/2020 8:20:22,0,100,632,1,4/26/2020 8:20:22, ,1,1,1,1,1,1,4,2.078,6.35,7.272,7, ,19,19,19,19,20,30,35,70,-30, , , , , , , , , , , , , , , ,6.471,99.761,100.537,31,13,15,16,12,15,15,13,12,7,8,7,11,12,11,11,11,6,4,4,4,8,4,7,4,4,4,4,8,6,6,8,4,8,8,6,8,6,4,4,8,7,5,4,7,4.035,135.619,135.893,54,4,1,5,2,5,3,3,3,3,3,3,4,4,4,2,1,3,1,17,17,17,5,5,5,5,2,4,4,3,6,1,6,2,4,2,28,1,1,3,3,1,2,2,21.43,175.569,176.2,52,3,2,21,21,0,3,0,8,9,4,4,4,5,1,1,4,1,2,37,38,37,40,39,41,15,11,4,4,4,5,5,6,3,2,2,5,5,5,2, ,3,Portugal, ,1,24,4, , , , ,1, , , , ,1, ,1, , ,5,30,1,1,1,0,0,0, , , , , , , , , , , , , , , , , , , , , , , , , , , , , , , , , , , , , , , , , , , , , , , , , ,24,1,3,Portugal,4, , , , , , , , , , , , , , , , , , , , , , , , , , , , , , , , , , , , , , , , , , , , , , , , , , , , , , ,1,1,1,1,1,1,4,1.578,4.413,5.255,8,1,21,21,21,21,21,35,40,70,-20, , , , , , , , , , , , , , , ,1.283,49.747,51.495,14,12,13,15,12,12,13,11,11,4,4,4,4,3.78,31.743,32.859,12,5,1,5,1,5,1,3,2,3,3,3,2,5,2,4,3,3,1,5,5,4,6,1,4,4,1,4,3,6,2,1,3,1,2.651,125.084,126.589,41,21,23,1,1,1,1,1,1,1,37,38,37,3, ,41,41,41,6,6,6,1,1,1,2,0, 
4/26/2020 10:27:21,4/26/2020 10:45:48,0,100,1107,1,4/26/2020 10:45:49, ,1,1,1,1,1,1,4,8.745,235.127,236.912,25, ,21,21,21,21,21,24,40,60,-30, , , , , , , , , , , , , , , ,6.059,199.378,201.117,48,11,11,11,11,11,11,11,11,8,8,8,12,11,11,11,11,4,7,4,4,7,4,8,4,4,7,4,8,7,7,7,4,8,6,4,8,4,4,4,8,7,4,7,4,1.55,176.98,177.566,54,4,1,4,1,1,1,4,1,5,1,4,1,5,5,4,1,4,1,17,17,12, , , ,7,1,5,4,1,7,7,7,4,1,1,28,2,7,7,2,2,1,1,4.989,215.523,215.529,62,11,14,23,20,4,0,2,6,8,4,1,1,1,1,1,1,2,2,37,37,37,41,41,41,17,16,5,1,4,6,7,2,7,7,7,6,6,6,2, ,3,Estonia, ,1,25,4, , , ,1,1, , , ,1,1, ,1, , ,5,100,1,1,1,0,0,0, , , , , , , , , , , , , , , , , , , , , , , , , , , , , , , , , , , , , , , , , , , , , , , , , ,25,1,3,Estonia,3, , , , , , , , , , , , , , , , , , , , , , , , , , , , , , , , , , , , , , , , , , , , , , , , , , , , , , ,1,1,1,1,1,1,4,.409,15.544,16.888,12,4,21,21,21,21,21,0,32,0,-100, , , , , , , , , , , , , , , ,1.419,102.596,106.542,48,11,11,11,15,11,13,11,11,4,4,4,4,1.808,51.32,52.811,16,5,1,5,1,5,1,5,1,5,3,5,1,5,1,5,1,4,1, , , ,7,1,1,4,1,7,7,7,2,1,2,2,.869,140.875,140.881,46,20,20,1,1,1,1,1,1,1,37,37,37,4,"Extroverts need to talk with others a lot. Introverts get tired by doing that. I feel like introverts can survive longer without doing it, even though they will eventually crave closeness.",41,41,41,6,6,6,5,5,1,2,100,"This is more about what happened past week. I actually took a break from work for a week and did a lot of things with my family instead, so I'm not sure how this affects the study. I did learn a lot o"
4/26/2020 14:36:57,4/26/2020 15:02:54,0,100,1556,1,4/26/2020 15:02:55, ,1,1,1,1,1,1,4,27.602,67.833,68.397,8, ,18,21,21,18,21,44,44,100,3, , , , , , , , , , , , , , , ,16.962,368.755,371.848,50,11,13,12,12,11,15,12,11,8,8,8,17,15,16,12,16,6,4,4,4,6,4,8,4,7,6,4,8,4,6,7,4,8,8,7,6,6,8,4,8,4,4,8,5,11.938,301.162,302.058,51,5,1,5,1,5,1,5,1,5,1,5,5,5,3,5,3,5,2,17,17,14,2,6,4,6,1,5,5,1,6,7,6,5,1,1,28,1,3,3,1,4,4,1,38.87,336.317,337.196,48,3,12,21,23,0,0,6,10,11,1,1,1,1,1,1,1,2,3,37,39,37,41,41,41,17,17,4,5,5,4,5,2,6,6,7,6,6,6,1, ,3,Mexico, ,1,28,4,1,1,1,1,1,0,0,0,0,2, ,1, , ,5,4,1,1,1,0,0,0, , , , , , , , , , , , , , , , , , , , , , , , , , , , , , , , , , , , , , , , , , , , , , , , , ,28,2,3,Mexico,4, , , , , , , , , , , , , , , , , , , , , , , , , , , , , , , , , , , , , , , , , , , , , , , , , , , , , , ,1,1,1,1,1,1,4,28.006,44.918,46.416,7,1,18,19,19,19,18,44,44,80,0, , , , , , , , , , , , , , , ,10.04,225.107,227.639,26,15,14,13,15,11,15,11,13,4,4,4,4,4.427,86.811,87.66,16,5,1,5,1,5,1,4,1,1,1,5,1,5,1,3,1,3,1,2,4,3,6,1,5,4,3,6,6,6,1,3,3,1,7.805,208.684,210.001,39,20,24,1,1,1,1,1,4,1,37,38,37,4,"Extrovert people like being surrounded by other people, the introverts rather be by our own",41,41,41,6,6,6,5,6,1,3,0, 
4/26/2020 7:42:44,4/26/2020 7:57:48,0,100,903,1,4/26/2020 7:57:48, ,1,1,1,1,1,1,4,25.551,34.156,36.568,7, ,17,17,17,20,17,35,35,40,0, , , , , , , , , , , , , , , ,3.442,113.3,115.754,42,14,13,15,14,15,15,15,13,7,7,7,11,11,11,11,11,6,6,4,4,5,6,6,4,5,5,4,5,4,7,5,6,6,4,7,7,5,4,5,6,7,4,4,4,3.216,212.249,213.8,85,3,4,4,2,1,4,2,3,2,2,2,3,4,3,3,2,3,2,16,16,14,5,5,5,4,3,3,3,3,6,6,5,3,4,3,27,3,5,5,3,2,2,3,4.463,195.42,196.748,81,13,12,22,21,0,0,0,6,6,5,4,5,9,5,5,5,4,4,40,39,38,39,39,38,14,14,5,4,4,4,4,5,2,2,3,2,2,1,2, ,3,italy, ,1,40,4,1,1,1,1,1,0,0,0,0,2, ,1, , ,5,100,1,1,1,0,0,0, , , , , , , , , , , , , , , , , , , , , , , , , , , , , , , , , , , , , , , , , , , , , , , , , ,40,1,7, ,3, , , , , , , , , , , , , , , , , , , , , , , , , , , , , , , , , , , , , , , , , , , , , , , , , , , , , , ,1,1,1,1,1,1,4,3.07,9.762,15.176,7,1,19,20,20,20,19,35,35,50,-15, , , , , , , , , , , , , , , ,3.081,120.192,120.753,50,14,14,15,15,14,15,14,15,6,7,6,5,2.895,36.906,39.072,19,3,4,3,3,2,3,2,2,3,2,3,2,4,2,4,2,4,2,5,4,4,4,3,3,2,2,6,5,6,3,2,2,2,6.668,131.695,132.628,76,21,22,5,5,5,5,5,5,5,39,39,39,3,Everyone has to face difficulties in this situation,39,39,39,4,3,2,6,6,1,1,50, 
4/26/2020 9:28:51,4/26/2020 11:52:10,0,100,8598,1,4/26/2020 11:52:10, ,1,1,1,1,1,1,4,5.427,60.438,1054.002,18, ,18,18,19,19,18,40,40,100,40, , , , , , , , , , , , , , , ,2.089,135.513,136.464,56,14,14,15,15,13,15,13,14,8,8,8,17,14,14,11,14,8,4,4,4,4,4,4,4,4,4,4,4,4,8,4,4,8,4,8,8,8,4,4,8,8,4,4,4,2.63,385.53,386.472,116,4,1,1,1,1,1,3,3,3,1,5,3,1,3,3,3,3,1,17,17,17,6,6,6,1,3,4,3,3,7,1,7,5,5,1,28,1,1,1,2,4,4,3,3.297,363.668,364.393,106,2,3,22,23,7,0,0,9,9,5,1,4,5,1,9,1,5,5,37,39,37,37,41,41,17,17,5,4,3,1,6,4,3,5,5,6,6,6,2, ,3,Estonia, ,1,28,4, ,1, , ,1, ,1, , ,1, ,1, , ,7,40,1,1,1,4,0,0, , , , , , , , , , , , , , , , , , , , , , , , , , , , , , , , , , , , , , , , , , , , , , , , , ,27,1,3,Estonia,2, , , , , , , , , , , , , , , , , , , , , , , , , , , , , , , , , , , , , , , , , , , , , , , , , , , , , , , , , , , , , , , , , , , , , , , , , , , , , , , , , , , , , , , , , , , , , , , , , , , , , , , , , , , , , , , , , , , , , , , , , , , , , , , , , , , , , , , , , , , , , , , , , , , , , , , , , , , , , , , , , , , , , , , , , , , , , 
4/26/2020 7:44:00,4/26/2020 7:59:14,0,100,913,1,4/26/2020 7:59:14, ,1,1,1,1,1,1,4,202.675,214.811,216.275,21, ,21,21,21,21,21,37,37,100,-21, , , , , , , , , , , , , , , ,6.135,107.233,108.829,50,12,12,15,13,14,12,13,12,8,8,8,12,12,12,12,12,5,6,4,5,6,4,7,4,4,6,5,7,4,6,7,4,8,7,7,7,5,4,5,7,5,4,4,6,5.746,159.837,160.879,132,4,1,4,1,4,1,4,1,4,1,4,1,5,1,5,3,5,2,16,16,16,5,5,5,7,2,4,5,1,7,7,7,3,2,2,28,1,1,7,1,3,5,1,3.548,175.893,177.568,145,13,13,20,23,5,0,0,9,9,1,1,1,1,1,1, ,2,2,37,37,37,40,40,40,16,16,3,3,4,6,6,2,4,3,4,5,5,6,3, ,1, , ,1,35,3, , , , , , , , , , ,1, , , ,5,2,1,1,1,4,2,0, , , , , , , , , , , , , , , , , , , , , , , , , , , , , , , , , , , , , , , , , , , , , , , , , ,34,1,9, ,4, , , , , , , , , , , , , , , , , , , , , , , , , , , , , , , , , , , , , , , , , , , , , , , , , , , , , , ,1,1,1,1,1,1,4,1.161,9.424,10.429,19,1,19,20,20,20,20,30,37,90,-10, , , , , , , , , , , , , , , ,.395,136.073,137.629,97,12,12,14,11,13,11,15,11,4,4,4,4,.904,39.467,40.601,39,3,2,3,3,3,1,4,3,4,2,4,2,5,1,4,2,5,2,4,4,6,6,1,4,4,1,7,2,3,1,1,4,1,.722,169.89,170.921,150,20,23,1,1,1,1,4,1,1,37,37,37,4,I've heard introverts say they've been training for this their whole lives.,41,40,41,5,4,6,3,2,1,3,0,I've sat here trying to come up with a frustration. All I can come up with is that my Bluetooth headphones aren't capable of connecting to more than one device at a time. This complicates watching fil
4/27/2020 11:10:41,4/27/2020 11:33:04,0,100,1342,1,4/27/2020 11:33:04, ,1,1,1,1,1,1,4,3.195,27.891,29.019,7, ,19,19,20,20,20,43,43,100,-8, , , , , , , , , , , , , , , ,14.189,222.221,222.46,47,11,11,12,13,12,13,11,11,6,8,8,13,14,12,11,12,7,4,4,4,7,4,4,4,7,4,4,4,6,4,7,4,4,5,4,7,8,4,4,6,4,4,4,5,175.158,331.559,332.234,51,4,1,5,3,2,1,4,1,3,3,4,3,5,4,4,3,4,2,17,17,14,5,5,5,5,2,3,2,2,5,2,6,2,5,1,27,1,1,5,1,3,4,4,6.209,221.043,221.621,55,3,11,20,22,0,2,0,8,7,5,5,5,4,4,5,1,4,4,37,38,37,39,38,40,16,14,3,2,2,1,1,1,5,6,7,6,5,3,2, ,3,Portugal, ,1,24,4,1,1,1,1,1,0,0,0,0,2, ,1, , ,4,14,1,1,1,0,0,0,No thank you!, , , , , , , , , , , , , , , , , , , , , , , , , , , , , , , , , , , , , , , , , , , , , , , , ,23,1,3,Portugal,4, , , , , , , , , , , , , , , , , , , , , , , , , , , , , , , , , , , , , , , , , , , , , , , , , , , , , , ,1,1,1,1,1,1,4,9.198,23.271,24.031,7,1,18,19,20,20,19,44,40,90,-15, , , , , , , , , , , , , , , ,2.394,136.221,137.179,27,14,12,15,13,12,12,12,12,4,5,4,4,142.842,192.779,193.782,17,4,1,4,3,4,1,4,4,4,3,4,3,4,5,4,2,5,1,6,6,5,5,4,4,3,2,6,3,4,2,4,4,4,3.11,1044.713,1045.759,62,21,22,5,4,5,4,1,5,1,37,38,37,4,I feel like introverts usually find it easier to stay inside home and live without prolonged social interaction.,40,39,40,5,5,4,5,5,3,1,0, 
4/26/2020 9:23:52,4/26/2020 9:35:23,0,100,690,1,4/26/2020 9:35:23, ,1,1,1,1,1,1,4,9.813,19.926,21.122,7, ,15,15,18,17,15,55,40,95,-20, , , , , , , , , , , , , , , ,5.95,193.037,195.834,33,15,15,14,13,14,14,11,13,8,8,8,13,11,11,11,11,6,5,4,4,5,5,6,4,7,5,4,6,6,5,5,5,7,5,8,6,6,4,6,6,5,7,4,6,3.411,134.681,135.469,47,2,5,2,3,1,1,4,2,3,2,3,3,1,4,2,3,2,2,15,17,12,4,5,5,3,3,3,3,2,7,2,2,2,4,2,25,1,2,2,3,3,4,4,4.438,132.265,134.162,45,12,13,22,22,1,0,0,8,9,9,9,5,5,9,9,4,3,3,40,40,40,38,39,39,12,11,5,5,6,7,7,5,5,5,5,3,3,2,1, ,3,Portugal, ,1,30,4, , , , ,1, , , , ,3, ,1, , ,5,0,1,1,1,0,0,0, , , , , , , , , , , , , , , , , , , , , , , , , , , , , , , , , , , , , , , , , , , , , , , , , ,29,2,3,Portugal,5, , , , , , , , , , , , , , , , , , , , , , , , , , , , , , , , , , , , , , , , , , , , , , , , , , , , , , ,1,1,1,1,1,1,4,7.377,17.558,19.4,7,1,15,15,18,18,17,50,42,90,19, , , , , , , , , , , , , , , ,1.643,131.042,134.149,21,15,13,13,14,15,15,13,13,7,8,7,7,2.993,38.454,39.553,13,2,5,2,3,2,2,3,4,2,5,3,4,2,4,1,2,1,1,4,3,3,3,3,2,2,3,5,2,2,4,3,4,3,5.302,112.52,114.15,36,23,22,9,9,5,5,10,10,4,41,40,40,3,Both suffer for different reasons. It's the lack of choice that affects everyone.,39,39,38,4,4,2,7,7,1,3,10,I don't feel confident. I have been making mistakes on simple tasks. I'm having troubling focusing and feel mostly tired. I have been asked to do way more tasks that what I can do in a 8hours/day work
4/26/2020 9:28:02,4/26/2020 9:44:15,0,100,972,1,4/26/2020 9:44:15, ,1,1,1,1,1,1,4,24.77,40.124,41.947,8, ,20,20,20,19,20,25,35,70,-30, , , , , , , , , , , , , , , ,21.113,142.363,144.441,34,11,11,14,12,12,12,11,11,7,8,7,11,11,11,11,11,4,6,4,4,7,4,7,4,4,6,4,7,5,7,8,4,7,6,4,8,5,4,6,6,6,5,4,6,4.574,225.748,226.429,56,4,1,5,1,5,2,3,3,2,1,3,2,5,3,4,1,3,1,17,17,17,4,3,5,3,3,4,4,1,6,1,5,3,3,1,28,1,7,3,1,1,3,1,5.596,231.292,231.961,57,1,11,21,22,0,0,0,8,6,4,1,4,4,1,4,4,4,4,37,38,37,41,40,41,16,11,1,1,1,6,6,2,4,2,4,6,6,6,2, ,3,Spain, ,1,37,4,1,1,1,1,1,0,0,0,0,1, ,1, , ,4,45,1,1,1,0,0,0, , , , , , , , , , , , , , , , , , , , , , , , , , , , , , , , , , , , , , , , , , , , , , , , , ,36,1,8, ,4, , , , , , , , , , , , , , , , , , , , , , , , , , , , , , , , , , , , , , , , , , , , , , , , , , , , , , ,1,1,1,1,1,1,4,5.082,15.37,19.18,7,1,20,20,20,20,19,25,35,50,-35, , , , , , , , , , , , , , , ,2.105,82.326,85.788,19,11,11,13,11,14,11,11,11,4,5,4,5,4.499,55.65,56.646,16,5,1,5,1,5,4,2,4,1,1,2,3,4,3,3,2,3,1,3,3,5,5,3,3,3,2,6,1,5,1,1,3,4,8.778,154.198,155.092,36,21,21,4,4,1,4,1,1,4,37,38,37,4,I think extrovers need to go out more and talk more to people,40,40,41,6,6,6,5,5,3,3,0, 
4/26/2020 7:49:20,4/26/2020 8:17:23,0,100,1682,1,4/26/2020 8:17:23, ,1,1,1,1,1,1,4,15.909,30.099,31.02,7, ,18,18,19,17,17,40,37,70,10, , , , , , , , , , , , , , , ,10.761,304.289,322.037,49,14,12,15,13,13,13,13,11,7,8,8,12,11,11,12,11,6,6,4,4,7,5,6,4,4,6,4,6,6,7,7,4,7,5,7,6,5,4,5,6,6,5,5,7,3.753,152.265,153.195,52,4,2,3,2,2,1,2,3,3,3,2,3,4,3,3,3,2,1,16,17,16,5,4,4,2,3,3,3,3,5,3,6,2,4,2,27,1,4,4,2,1,4,2,3.772,231.731,233.184,53,12,12,21,22,3,2,0,4,5,5,4,5,5,4,4,1,3,3,37,38,38,39,38,39,13,12,4,4,4,3,4,3,4,4,4,4,4,3,2, ,1, , ,1,40,4,1,1,1,1,1,0,0,0,0,1,1, , , ,5,25,1,1,1,0,0,0,The wording of the question regarding the percentage of time you've spent doing different software development wasn't very clear - if it should add up to 100% it would be useful to see a total, , , , , , , , , , , , , , , , , , , , , , , , , , , , , , , , , , , , , , , , , , , , , , , , ,39,1,9, ,4, , , , , , , , , , , , , , , , , , , , , , , , , , , , , , , , , , , , , , , , , , , , , , , , , , , , , , ,1,1,1,1,1,1,4,3.319,15.193,17.475,7,1,19,19,19,19,19,32,32,80,15, , , , , , , , , , , , , , , ,1.625,158.278,158.548,41,13,12,13,12,13,12,12,11,5,5,5,5,3.229,41.825,44.136,18,4,2,4,2,4,1,3,1,3,1,3,3,4,3,4,3,3,1,5,5,5,4,2,3,3,2,4,2,6,2,1,4,2,7.083,112.499,113.357,44,21,23,4,1,4,5,4,4,1,37,38,37,4,"I think extroverts would suffer more from the limited social contact, but that's not to say that introverts aren't struggling either",39,39,39,4,4,4,5,5,1,3,10,"My main frustrations are around not being able to do some of the day-to-day personal activites I want to be able to do, such as shopping being more of a headache, and various services being unavailabl"
4/26/2020 7:45:27,4/26/2020 8:02:44,0,100,1036,1,4/26/2020 8:02:44, ,1,1,1,1,1,1,4,6.077,31.542,34.229,19, ,19,18,19,19,19,40,40,100,-10, , , , , , , , , , , , , , , ,1.22,160.603,161.509,63,12,12,13,12,13,12,12,11,8,8,8,15,14,14,13,14,8,5,4,4,4,4,8,4,6,4,4,6,4,4,5,4,6,4,7,8,4,4,5,7,4,4,4,6,4.602,247.7,249.178,103,4,1,5,1,4,1,5,2,3,1,4,3,4,2,4,3,4,1,17,17,15,6,6,6,5,2,4,4,2,7,7,7,4,2,2,26,1,5,4,1,1,5,3,2.493,212.773,213.75,105,3,12,21,24,0,0,0,8,8,1,1,1,1,1,4,1,3,5,39,39,38,41,39,41,15,13,4,5,5,5,5,6,7,6,7,5,5,5,2, ,3,Portugal, ,1,21,4, , , ,1,1, , , ,1,2, ,1, , ,4,9,1,1,1,0,0,0, , , , , , , , , , , , , , , , , , , , , , , , , , , , , , , , , , , , , , , , , , , , , , , , , ,20,1,3,Portugal,4, , , , , , , , , , , , , , , , , , , , , , , , , , , , , , , , , , , , , , , , , , , , , , , , , , , , , , ,1,1,1,1,1,1,4,13.877,22.478,26.547,14,1,19,20,20,20,19,40,40, ,0, , , , , , , , , , , , , , , ,1.688,216.355,217.887,82,11,12,12,15,12,13,12,12,4,5,4,4,4.873,86.456,87.043,30,4,2,3,4,2,1,4,2,3,1,3,2,5,3,3,2,4,1,5,5,6,5,2,4,3,2,7,7,7,1,3,4,3,46.628,355.042,355.988,109,21,24,4,4,4,5,1,1,1,37,39,38,4,Extroverts feel the need to interact more in my opinion,41,39,41,5,5,5,5,5,1,1,0, 
4/27/2020 2:01:45,4/27/2020 2:22:22,0,100,1236,1,4/27/2020 2:22:22, ,1,1,1,1,1,1,4,3.621,36.918,39.136,8, ,17,18,19,17,17,24,40,20,-80, , , , , , , , , , , , , , , ,3.186,171.415,172.459,48,15,16,15,15,15,15,16,14,8,8,8,15,17,11,15,11,4,7,4,4,4,4,7,4,4,4,4,8,4,7,4,6,7,8,7,8,7,4,4,8,7,4,4,7,.936,272.287,273.392,60,2,4,3,2,2,2,2,3,3,2,2,3,5,4,3,2,2,1,17,17,13,5,5,5,6,3,4,3,3,7,6,6,4,4,3,26,1,6,5,3,2,3,3,1.107,370.26,372.874,73,12,13,23,21,5,3,6,6,9,1,9,9,1,4,4,9,1,2,37,39,37,37,37,38,11,11,2,5,4,4,4,2,3,3,3,4,4,4,2, ,1, , ,1,32,4, , , , ,1, , , , ,4, ,1, , ,5,80, , ,1, , ,2, , , , , , , , , , , , , , , , , , , , , , , , , , , , , , , , , , , , , , , , , , , , , , , , , ,31,1,9, ,4, , , , , , , , , , , , , , , , , , , , , , , , , , , , , , , , , , , , , , , , , , , , , , , , , , , , , , ,1,1,1,1,1,1,4,5.551,21.441,25.573,12,1,20,20,19,20,19,40,46,90,20, , , , , , , , , , , , , , , ,1.541,138.13,139.251,51,12,16,13,14,12,12,12,12,4,4,4,4,.704,55.718,59.207,18,1,4,4,3,3,1,3,1,4,1,5,2,3,1,3,1,4,1,4,5,4,7,3,3,4,3,7,7,6,3,2,4,3,.97,169.253,170.488,53,23,22,4,5,5,4,1,4,1,37,38,37,4,I'm introvert and I don't feel the pandemic has affected me at all. Rules aren't hard to follow and haven't feel bad. I feel for extroverts they would struggle a bit with the rules.,40,40,40,4,4,4,5,5,1,3,10, 
4/26/2020 7:49:00,4/26/2020 8:10:00,0,100,1259,1,4/26/2020 8:10:01, ,1,1,1,1,1,1,4,34.802,56.295,57.665,8, ,20,21,20,20,20,30,32,60,60, , , , , , , , , , , , , , , ,8.17,211.409,212.192,27,15,15,15,15,14,14,14,15,8,8,7,16,14,15,12,14,7,7,7,4,7,6,6,6,6,7,4,7,7,7,8,5,7,5,7,7,7,5,7,7,8,5,4,5,11.107,376.009,377.101,55,3,2,4,2,3,4,4,3,5,2,4,4,4,4,5,2,4,3,16,16,14,6,5,5,6,2,3,4,4,3,2,5,3,5,4,28,5,6,6,1,4,5,2,7.053,332.588,333.785,58,12,3,22,21,3,0,2,10,6,1,4,4,9,5,9,4,4,3,38,37,37,40,41,39,15,13,5,4,6,6,4,3,5,3,4,5,5,5,2, ,2, ,6,2,24,4,1,1,1,1,1,0,0,0,0,2, ,1, , ,8,40,1,1,1,0,0,0, , , , , , , , , , , , , , , , , , , , , , , , , , , , , , , , , , , , , , , , , , , , , , , , , ,22,1,3,Poland,4, , , , , , , , , , , , , , , , , , , , , , , , , , , , , , , , , , , , , , , , , , , , , , , , , , , , , , ,1,1,1,1,1,1,4,33.859,42.659,48.555,8,1,20,20,21,19,21,15,15,100,70, , , , , , , , , , , , , , , ,4.644,88.243,91.497,21,13,15,13,12,11,12,12,11,4,6,5,4,4.9,79.113,79.828,17,4,2,4,2,2,2,4,2,5,1,4,5,5,4,5,3,4,4,5,6,5,7,2,4,4,2,7,3,2,1,3,4,2,3.437,229.277,229.941,37,21,20,1,9,4,5,5,9,4,38,38,37,4,in my opinion the introverts' life has not changed so much because they prefer to sit at home anyway,41,40,40,5,5,6,7,4,1,3,0, 
4/26/2020 9:24:32,4/26/2020 9:39:35,0,100,902,1,4/26/2020 9:39:35, ,1,1,1,1,1,1,4,14.495,29.626,30.95,7, ,15,17,19,19,16,20,50,60,-30, , , , , , , , , , , , , , , ,6.583,220.428,222.11,46,14,12,17,12,15,12,11,11,8,3,7,14,14,11,11,11,7,8,7,8,6,7,7,4,7,7,8,8,8,8,7,6,8,8,6,6,5,7,5,6,8,8,8,7,8.813,178.499,180,44,2,4,2,5,3,2,4,4,5,3,4,5,5,5,2,4,1,3,17,17,13,2,1,4,2,4,4,3,5,2,2,2,4,5,2,28,6,7,7,2,5,3,2,3.8,172.99,174.049,43,12,13,23,22,2,1,0,3,6,10,10,10,9,4,9,10,4,4,41,39,41,37,37,37,14,11,1,1,1,6,7,7,4,3,5,2,1,1,1, ,2, ,18,1,36,4,1,1,1,1,1,0,0,0,0,1, ,1, , ,4,99,1,1,1,0,0,0,no, , , , , , , , , , , , , , , , , , , , , , , , , , , , , , , , , , , , , , , , , , , , , , , , ,35,2,10, ,4, , , , , , , , , , , , , , , , , , , , , , , , , , , , , , , , , , , , , , , , , , , , , , , , , , , , , , ,1,1,1,1,1,1,4,8.612,17.726,19.227,7,1,16,17,20,18,15,16,50,50,-60, , , , , , , , , , , , , , , ,2.108,99.39,100.68,21,16,12,17,12,13,12,13,11,6,8,5,8,2.999,41.042,42.037,13,3,5,2,5,3,3,2,5,3,5,3,5,1,5,1,5,1,5,1,1,1,2,4,3,3,5,1,1,1,4,5,3,2,2.565,97.607,98.769,34,23,21,10,10,10,10,9,5,10,40,37,39,3,"I consider myself an introvert. The change is more drastic for extrovert obviously. But for folks such as myself who limit human interaction already, the lack of even fewer options for human connectio",37,37,39,3,2,1,5,5,1,3,10,I just feel overwhelmed.
4/26/2020 9:49:49,4/26/2020 10:07:16,0,100,1047,1,4/26/2020 10:07:17, ,1,1,1,1,1,1,4,8.701,37.616,39.285,13, ,20,20,20,19,19,50,40,90,0, , , , , , , , , , , , , , , ,3.161,183.251,184.501,68,13,14,14,12,13,13,15,12,7,8,7,12,11,11,11,11,7,7,5,4,4,5,7,5,5,5,4,6,4,5,6,4,7,6,6,7,5,6,6,7,4,4,5,7,4.566,215.72,217.279,82,3,2,3,1,2,1,4,1,3,1,4,2,3,2,3,2,4,1,16,17,15,5,6,5,5,2,4,4,1,7,5,6,4,4,2,27,1,6,1,1,1,2,3,5.146,235.024,236.279,80,3,13,21,22,5,0,0,9,9,1,1,4,4,1,1,1,3,4,37,39,37,39,38,40,16,15,4,3,4,4,5,2,5,5,5,5,5,4,2, ,2, ,49,1,34,4,1,1,1,1,1,0,0,0,0,1,1, , , ,9,10,1,1,1,2,0,0, , , , , , , , , , , , , , , , , , , , , , , , , , , , , , , , , , , , , , , , , , , , , , , , , ,33,1,10, ,4, , , , , , , , , , , , , , , , , , , , , , , , , , , , , , , , , , , , , , , , , , , , , , , , , , , , , , ,1,1,1,1,1,1,4,1.167,14.198,15.101,13,1,19,19,20,20,20,40,40,71,0, , , , , , , , , , , , , , , ,2.007,127.946,129.539,44,12,12,15,12,12,13,15,11,4,5,4,4,2.467,70.822,71.985,24,2,1,3,1,3,1,3,3,3,1,3,1,4,2,4,2,4,1,4,5,5,5,1,5,4,1,6,6,5,2,1,3,4,5.779,229.138,230.301,59,21,23,1,1,1,5,1,1,1,37,39,37,4,"Though all humans requires social stimulus, extroverts may find themselves with less energy because fewer chances to gain that stimulus whereas introverts can gain that from other areas.",41,40,40,6,6,5,4,5,1,3,0,"Major source of frustration is those little trips not being taken. Home projects require a couple trips to the hardware store, or dinner needs that one extra ingredient. Those can't be done on a whim"
4/27/2020 5:20:09,4/27/2020 5:42:03,0,100,1313,1,4/27/2020 5:42:03, ,1,1,1,1,1,1,4,65.453,79.485,80.615,7, ,20,20,20,19,20,32,40,80,15, , , , , , , , , , , , , , , ,40.329,313.663,317.064,55,11,12,13,14,12,12,12,13,7,8,8,12,12,11,14,11,5,8,4,6,6,4,7,4,5,6,5,7,5,5,6,4,7,6,5,7,5,5,6,6,6,4,5,6,5.4,215.722,217.533,50,4,1,5,1,4,2,4,4,4,3,4,2,3,4,4,2,4,1,15,17,16,5,5,5,5,2,5,4,3,6,6,6,3,5,3,28,2,6,5,1,4,4,3,7.186,205.274,206.403,47,3,13,21,22,1.15,.5,3.5,7,9,1,1,1,4,1,4,1,3,2,37,37,37,40,40,41,15,16,4,3,3,4,4,2,5,5,5,5,4,5,2, ,1, , ,1,33,4, ,1,1, ,1, ,1,1, ,1, ,1, , ,6,15,1,1,1,0,0,0, , , , , , , , , , , , , , , , , , , , , , , , , , , , , , , , , , , , , , , , , , , , , , , , , ,32,1,9, ,5, , , , , , , , , , , , , , , , , , , , , , , , , , , , , , , , , , , , , , , , , , , , , , , , , , , , , , ,1,1,1,1,1,1,4,12.287,23.062,24.557,12,1,19,20,20,20,18,26,40,60,20, , , , , , , , , , , , , , , ,2.359,188.295,191.813,40,11,11,14,13,13,11,12,13,5,5,4,5,9.531,63.301,70.016,12,5,1,5,2,4,2,3,3,4,2,4,2,4,4,4,2,4,2,5,5,5,5,2,5,4,3,4,5,6,1,4,4,1,7.572,197.354,201.082,36,22,21,1,1,1,4,1,4,1,37,37,37,3,I think the two groups may face different sets of struggles but I would be surprised if there is a clear distinction in who is struggling more during this pandemic,40,40,41,5,5,5,5,5,1,3,0, 
4/26/2020 9:15:10,4/26/2020 9:46:17,0,100,1867,1,4/26/2020 9:46:18, ,1,1,1,1,1,1,4,21.997,36.495,37.37,7, ,19,19,20,20,21,40,40,70,0, , , , , , , , , , , , , , , ,6.044,323.757,324.713,43,11,11,11,13,12,11,11,11,7,7,7,11,11,11,11,11,7,7,4,4,7,4,7,4,4,6,4,4,5,4,4,4,5,6,7,8,7,4,6,7,5,5,4,5,12.579,278.465,279.571,51,4,1,4,2,5,1,3,4,4,1,4,1,5,2,5,3,5,2,17,17,17,5,5,5,5,3,5,4,2,5,2,3,3,1,1,28,1,1,1,1,3,2,2,9.343,858.733,860.152,53,3,12,21,23,4,1,0,9,9,1,1,1,1,1,4,1,3,3,37,37,37,40,39,41,17,16,2,2,1,2,2,1,6,6,7,6,6,6,2, ,3,Latvia, ,1,34,4, , , , ,1, , , , ,1, ,1, , ,5,90,1, , ,2, , , , , , , , , , , , , , , , , , , , , , , , , , , , , , , , , , , , , , , , , , , , , , , , , , , ,33,1,3,Ukraine,4, , , , , , , , , , , , , , , , , , , , , , , , , , , , , , , , , , , , , , , , , , , , , , , , , , , , , , ,1,1,1,1,1,1,4,18.528,26.966,28.568,7,1,20,20,20,19,21,40,40,40,0, , , , , , , , , , , , , , , ,2.814,169.147,170.906,35,11,11,12,11,12,11,12,13,4,5,4,5,5.515,86.478,94.72,17,4,1,5,1,4,2,2,4,3,1,3,3,5,1,5,1,4,1,5,4,5,3,2,4,5,2,6,5,4,1,3,3,2,6.791,201.734,203.348,44,21,23,4,4,1,1,1,5,1,37,37,37,4,"Extroverts usually like to be around a lot people, while introverts are okay and even prefer to be left alone or with very few people whom they fully trust. Also, lack of live face-to-face interaction",41,39,41,5,5,5,5,5,1,3,0,"My major sources of frustrations have remained mostly the same as before COVID-19 pandemic, but I have noticed that I am disliking people much more now, seeing how the majority of other people in my c"
4/27/2020 3:37:50,4/27/2020 3:51:41,0,100,831,1,4/27/2020 3:51:41, ,1,1,1,1,1,1,4,51.135,63.239,64.353,7, ,20,21,21,21,20,16,35,20,-20, , , , , , , , , , , , , , , ,5.863,117.697,118.428,38,15,16,16,15,16,15,16,13,7,8,7,13,15,11,14,16,6,7,7,4,6,8,7,5,6,7,4,8,5,7,8,5,7,5,7,7,6,4,8,7,7,4,4,6,8.825,169.216,170.152,52,4,3,4,4,3,4,4,4,5,5,4,3,5,4,3,4,3,2,12,17,17,2,5,5,6,5,4,5,4,6,7,2,4,4,3,27,1,5,6,1,3,5,4,9.751,145.114,146.129,49,13,13,20,20,3,5,5,8,8,1,5,5,1,5,4,1,4,4,38,40,37,40,40,41,17,11,6,4,6,2,4,5,3,5,5,5,3,5,2, ,3,Portugal, ,1,23,4,1,1,1,1,1,0,0,0,0,2,1, , , ,4,10,1,1,1,0,0,0,"No, thanks", , , , , , , , , , , , , , , , , , , , , , , , , , , , , , , , , , , , , , , , , , , , , , , , ,22,1,3,Portugal,5, , , , , , , , , , , , , , , , , , , , , , , , , , , , , , , , , , , , , , , , , , , , , , , , , , , , , , ,1,1,1,1,1,1,4,6.543,13.162,13.995,9,1,20,21,19,18,17,20,35,30,32, , , , , , , , , , , , , , , ,3.909,125.864,128.982,34,15,12,15,15,13,15,15,15,5,7,7,6,2.837,22.036,22.665,14,4,2,4,4,4,2,3,4,3,3,3,4,4,3,4,4,4,2,4,5,5,5,4,3,4,4,5,7,3,2,4,5,3,1.998,61.536,62.18,37,20,21,1,4,4,4,1,4,4,38,40,37,4,"Extroverts, because they need other people to talk and play",40,41,40,5,3,5,5,5,1,1,10,My major sources of frustrations are only the moments I think that I can't go out and drink a beer with my friends.
4/26/2020 8:48:13,4/26/2020 9:06:23,0,100,1090,1,4/26/2020 9:06:23, ,1,1,1,1,1,1,4,14.323,26.11,31.022,7, ,17,19,19,19,19,20,20,80,1, , , , , , , , , , , , , , , ,31.969,162.698,166.64,28,12,15,15,15,12,15,12,12,8,8,7,11,11,11,12,11,7,8,5,5,6,5,6,5,6,6,5,8,4,8,6,4,8,7,8,8,5,4,7,7,7,4,4,7,10.462,267.809,268.52,53,4,2,4,3,3,3,3,2,2,1,3,2,2,3,3,2,3,1,16,16,12,4,4,4,5,2,4,3,2,6,5,2,5,3,1,26,3,5,6,1,2,3,2,6.564,282.474,284.724,47,11,11,21,22,3,0,0,7,8,4,1,1,4,1,5,1,4,4,38,38,37,40,38,41,15,15,5,3,4,4,4,5,3,3,4,5,5,4,1, ,3,Italy, ,1,30,4,1,1,1,1,1,0,0,0,0,2, ,1, , ,4,100,1,1,1,0,0,0, , , , , , , , , , , , , , , , , , , , , , , , , , , , , , , , , , , , , , , , , , , , , , , , , ,30,2,7, ,4, , , , , , , , , , , , , , , , , , , , , , , , , , , , , , , , , , , , , , , , , , , , , , , , , , , , , , ,1,1,1,1,1,1,4,8.223,15.239,17.169,7,1,17,18,19,17,19,20,20,80,0, , , , , , , , , , , , , , , ,5.062,176.51,179.857,29,12,15,15,15,13,15,12,12,6,6,5,4,8.411,58,58.973,16,3,2,3,1,2,1,3,1,3,1,3,2,1,1,3,3,3,1,4,3,4,3,2,4,3,3,6,2,3,2,3,4,2,5.787,156.049,156.505,38,21,22,4,1,1,4,1,1,1,37,39,37,4,Extroverts usually have a lot of people around.,38,38,41,4,4,3,1,1,1,1,0,"I'm fine. I keep asking myself how long will this situation keep on going. Honestly, I hope for the best but fear the worst."
4/26/2020 16:28:54,4/26/2020 16:43:01,0,100,846,1,4/26/2020 16:43:01, ,1,1,1,1,1,1,4,9.289,13.657,18.829,7, ,17,18,18,17,17,60,40,100,0, , , , , , , , , , , , , , , ,4.461,160.614,166.098,45,12,11,11,13,12,11,11,12,8,6,8,11,14,13,11,11,8,5,4,4,4,7,5,4,4,5,4,4,5,5,5,7,5,7,8,8,6,5,4,8,5,4,4,7,12.446,204.98,205.875,54,3,1,4,4,3,1,4,1,4,2,4,1,4,4,3,4,4,2,17,17,17,4,6,4,4,3,3,3,3,1,1,1,2,5,2,28,1,1,1,2,1,4,2,4.195,181.18,181.645,53,1,3,21,22,0,0,0,9,9,9,10,10,5,1,5,9,3,4,38,39,37,39,38,38,17,15,6,6,6,3,5,6,6,7,7,4,4,3,2, ,3,Canada, ,1,26,3, , , , , , , , , , , ,1, , ,7,20,1,1,1,0,0,0, , , , , , , , , , , , , , , , , , , , , , , , , , , , , , , , , , , , , , , , , , , , , , , , , ,25,1,3,Taiwan,4, , , , , , , , , , , , , , , , , , , , , , , , , , , , , , , , , , , , , , , , , , , , , , , , , , , , , , ,1,1,1,1,1,1,4,5.254,10.454,12.242,7,1,18,19,19,17,19,60,40,90,60, , , , , , , , , , , , , , , ,1.632,365.816,366.864,37,12,13,15,13,13,14,15,12,6,5,6,5,1.318,38.726,39.445,13,3,3,4,4,2,2,4,2,4,3,4,2,3,5,2,3,4,4,4,4,4,5,3,3,3,3,1,1,1,2,1,4,2,.677,115.453,115.989,40,21,23,5,5,5,9,4,9,9,38,39,37,3,"Extroverts who can't go out to interact with other people are struggling for sure, but introverts being cooped up at home all day without the option to go outside is still also a struggle.",39,39,39,4,4,4,5,5,1,3,20, 
4/26/2020 8:08:06,4/26/2020 8:33:43,0,100,1537,1,4/26/2020 8:33:44, ,1,1,1,1,1,1,4,4.365,44.454,46.799,8, ,20,21,20,21,19,40,40,100,88, , , , , , , , , , , , , , , ,6.973,100.275,101.097,29,13,11,13,14,12,11,11,11,8,8,8,14,11,14,11,12,8,6,5,4,4,4,8,5,4,5,4,6,4,5,5,4,8,8,6,8,4,4,5,8,7,4,4,4,2.825,243.672,244.417,52,4,1,5,1,2,2,5,3,5,1,4,5,3,1,4,4,5,2,17,17,15,6,6,6,5,1,5,4,1,5,2,6,4,3,2,28,1,6,5,1,5,5,1,5.302,847.594,851.908,50,13,13,21,23,0,0,0,6,7,1,1,4,4,5,9,1,4,2,37,37,37,41,41,41,17,15,5,4,5,6,5,5,7,7,7,6,6,6,2, ,3,Portugal, ,1,24,4,1,1,1,1,1,0,0,0,0,3, ,1, , ,5,77,1,1,1,0,0,0,"No, everything was excellent", , , , , , , , , , , , , , , , , , , , , , , , , , , , , , , , , , , , , , , , , , , , , , , , ,23,1,3,Portugal,5, , , , , , , , , , , , , , , , , , , , , , , , , , , , , , , , , , , , , , , , , , , , , , , , , , , , , , ,1,1,1,1,1,1,4,3.598,36.019,37.747,12,1,19,21,20,20,21,40,40,100,0, , , , , , , , , , , , , , , ,2.682,197.692,198.892,46,11,12,14,13,12,12,13,11,4,5,4,4,9.966,92.772,95.004,21,4,1,3,1,1,2,5,3,4,2,4,5,4,1,5,4,4,1,6,6,6,5,4,4,3,1,6,1,5,1,4,4,1,3.729,189.22,203.405,49,21,22,1,1,1,1,1,4,4,37,39,37,3,"I think the pandemic affects all the people. There are restrict rules for everybody, no exception.",41,41,41,5,6,3,5,5,1,1,0,"Everything is great, till now..."
4/26/2020 8:31:34,4/26/2020 8:42:29,0,100,654,1,4/26/2020 8:42:29, ,1,1,1,1,1,1,4,12.597,17.878,20.861,7, ,17,18,18,18,17,40,40,91,0, , , , , , , , , , , , , , , ,13.881,96.905,97.869,28,12,12,15,12,11,13,11,12,8,8,8,17,17,15,13,14,8,7,4,4,7,5,7,4,6,6,4,6,4,7,7,4,6,4,5,7,7,6,6,6,7,5,7,5,6.689,155.96,156.653,47,4,2,4,1,3,3,4,2,4,2,4,2,3,3,4,3,4,2,17,17,17,5,5,5,4,3,4,4,2,6,6,6,2,4,4,28,1,6,5,1,3,3,1,7.619,140.994,148.12,46,13,12,21,23,5,4,1,6,6,5,5,5,5,5,5,5,4,4,37,39,37,40,39,41,15,16,3,3,2,2,4,4,4,5,5,4,4,4,2, ,3,Canada, ,1,44,4,1,1,1,1,1,0,0,1,2,1, ,1, , ,8,23,1,1,1,1,0,0, , , , , , , , , , , , , , , , , , , , , , , , , , , , , , , , , , , , , , , , , , , , , , , , , ,44,1,3,the USSR,4, , , , , , , , , , , , , , , , , , , , , , , , , , , , , , , , , , , , , , , , , , , , , , , , , , , , , , ,1,1,1,1,1,1,4,7.004,14.365,15.537,7,1,19,19,20,20,18,40,40,91,18, , , , , , , , , , , , , , , ,2.338,77.764,79.977,25,11,12,15,11,11,11,11,11,4,4,4,4,3.727,39.931,42.087,17,5,1,5,1,5,1,5,3,4,1,5,1,4,4,4,2,4,2,5,5,5,5,2,5,5,2,6,6,6,1,3,3,1,8.646,153.801,154.522,37,22,24,4,4,5,4,1,1,4,37,38,37,4,introverts are much more comfortable without constant company around them,41,41,41,5,5,5,5,5,1,2,0,The major source of frustration is the continuing uncertaintly of the timeline of resumption of normalcy.
4/26/2020 16:37:51,4/26/2020 17:01:35,0,100,1423,1,4/26/2020 17:01:35, ,1,1,1,1,1,1,4,19.214,80.955,83.596,11, ,19,19,19,16,16,40,40,71,-21, , , , , , , , , , , , , , , ,2.965,305.439,306.974,62,17,12,15,16,16,15,16,14,7,7,6,16,15,11,15,11,4,4,4,7,5,7,4,4,4,4,7,4,4,4,5,7,8,6,7,4,5,4,4,5,4,4,4,7,3.279,328.192,329.552,73,2,1,2,4,1,4,3,3,2,1,4,4,1,5,3,5,2,5,12,16,11,1,1,2,1,4,1,3,3,6,4,6,1,5,4,26,1,6,5,3,3,3,4,5.727,308.085,309.229,69,3,3,22,23,2,0,0,8,9,1,1,1,1,4,5,1,1,3,38,37,37,37,37,37,12,11,1,1,2,1,1,4,1,5,4,2,3,3,2, ,3,Australia, ,1,38,3, , , , , , , , , , , ,1, , ,8,10,1,1,1,1,2,3,'Sometimes' is spelled wrong in at least one of the sections., , , , , , , , , , , , , , , , , , , , , , , , , , , , , , , , , , , , , , , , , , , , , , , , ,38,1,3,Australia,4, , , , , , , , , , , , , , , , , , , , , , , , , , , , , , , , , , , , , , , , , , , , , , , , , , , , , , ,1,1,1,1,1,1,4,5.667,20.375,21.558,9,1,20,20,20,16,18,40,40,71,20, , , , , , , , , , , , , , , ,3.169,166.6,167.991,36,16,11,16,16,16,12,16,13,7,4,4,4,7.345,82.718,84.263,22,4,1,4,3,4,4,2,2,2,1,2,3,2,4,3,5,1,5,1,1,1,1,3,2,3,2,7,1,6,4,3,3,4,2.804,220.113,221.685,48,21,23,1,1,1,9,1,5,1,37,37,37,4,"Introverts tend to work in occupations which they are able to do alone, in isolation so they have for the large part been able to keep their jobs. They also enjoy spending time away from others.",37,37,40,5,5,5,2,2,3,1,20,Feels like me against the world at work. A lot of people are doing superfluous jobs and they get in the way of getting work done.
4/26/2020 9:57:50,4/26/2020 10:26:03,0,100,1693,1,4/26/2020 10:26:04, ,1,1,1,1,1,1,4,22.831,54.921,56.13,14, ,19,20,20,20,20,40,40,81,50, , , , , , , , , , , , , , , ,33.449,248.741,249.378,51,13,15,17,12,14,15,14,13,8,8,7,15,12,12,12,12,8,8,4,4,4,4,7,4,7,4,4,8,4,8,5,4,8,4,8,8,7,4,4,8,8,4,8,4,5.481,217.975,218.71,73,5,4,3,4,4,4,4,2,3,1,2,3,3,1,3,2,3,5,17,17,13,3,6,3,6,3,4,2,4,7,4,7,3,3,2,28,1,4,6,1,5,5,1,5.634,374.765,375.978,63,12,11,20,23,7,0,7,7,7,4,1,4,1,1,1,1,4,4,39,41,39,40,38,39,14,13,3,2,1,6,4,3,4,3,3,6,6,3,2, ,3,Portugal, ,1,27,4,1,1,1,1,1,0,0,0,0,1, ,1, , ,4,9,1,1,1,0,0,0, , , , , , , , , , , , , , , , , , , , , , , , , , , , , , , , , , , , , , , , , , , , , , , , , ,27,1,3,Portugal,4, , , , , , , , , , , , , , , , , , , , , , , , , , , , , , , , , , , , , , , , , , , , , , , , , , , , , , ,1,1,1,1,1,1,4,7.088,17.62,18.565,7,1,16,17,17,20,16,20,40,100,-20, , , , , , , , , , , , , , , ,2.712,215.675,215.936,49,11,11,16,11,13,11,11,11,4,4,4,4,5.321,38.601,39.429,14,4,1,4,3,4,1,4,1,5,1,5,2,4,2,3,4,3,3,6,6,6,3,1,5,3,1,7,7,7,1,5,5,1,3.973,142.484,142.996,38,20,24,1,1,1,1,1,9,1,41,41,37,3,regardless of being an introvert or extrovert every person has their loved ones and certainly misses them if they can't be together so in my opinion everyone feels impacted with this situation.,41,41,41,5,5,5,2,2,1,1,0,I'm feeling good and haven't been stressed at all mainly due to the fact that our work hours have been cut down to 50% so I have a lot of time to exercise and relax.
4/26/2020 7:47:07,4/26/2020 7:58:49,0,100,701,1,4/26/2020 7:58:50, ,1,1,1,1,1,1,4,3.514,8.039,11.949,7, ,19,19,20,20,19,40,40,80,-20, , , , , , , , , , , , , , , ,9.557,220.886,222.348,50,11,11,12,11,12,11,11,12,7,7,7,15,16,15,11,12,7,8,4,5,6,4,8,4,7,7,7,8,5,7,5,4,4,8,6,7,7,4,5,7,7,5,5,8,2.148,135.92,136.675,47,4,2,4,1,3,2,4,1,2,1,4,2,5,2,4,2,4,1,16,16,16,6,6,6,6,3,4,4,2,5,6,7,5,2,2,27,3,6,6,1,5,4,2,3.022,115.244,115.759,46,2,3,21,23,15,0,0,8,6,5,4,4,4,4,5,5,4,4,37,38,37,40,39,41,17,16,4,5,2,2,6,2,7,6,6,5,5,6,2, ,1, , ,1,41,3, , , , , , , , , , , ,1, , ,6,10,1,1,1,0,0,0, , , , , , , , , , , , , , , , , , , , , , , , , , , , , , , , , , , , , , , , , , , , , , , , , ,41,1,9, ,3, , , , , , , , , , , , , , , , , , , , , , , , , , , , , , , , , , , , , , , , , , , , , , , , , , , , , , ,1,1,1,1,1,1,4,6.269,12.525,14.479,7,1,19,18,19,19,19,30,40,80,-10, , , , , , , , , , , , , , , ,1.772,109.685,110.6,30,11,11,15,11,12,12,11,11,4,5,4,5,2.33,43.17,43.678,15,3,2,4,1,2,1,4,1,3,1,4,1,4,2,4,1,3,1,6,6,6,6,2,4,4,2,7,7,7,1,5,4,2,4.236,86.688,87.67,33,21,23,4,1,1,9,4,4,1,37,38,37,4,"As an introvert myself, I find that the current lockdown circumstances match my level of face to face engagement with others during a usual week and don't find it too difficult to manage my time in my",40,40,40,5,6,5,3,3,1,3,10,"Feeling okay, have adapted to the situation to a great extent and am slightly anxious about things returning to ""normal"". The lockdown has made me reflect more on my life (although I am by nature a ve"
4/27/2020 1:38:42,4/27/2020 1:59:14,0,100,1231,1,4/27/2020 1:59:14, ,1,1,1,1,1,1,4,22.452,39.203,40.581,7, ,20,19,20,19,20,35,35,10,100, , , , , , , , , , , , , , , ,13.006,282.76,285.387,49,11,11,12,11,11,11,11,11,7,7,8,11,11,11,11,11,4,8,4,4,4,4,4,4,4,4,4,4,4,4,4,4,6,6,4,8,4,4,4,4,4,4,4,5,7.935,208.751,214.193,49,5,1,5,1,5,1,2,2,1,1,4,1,4,1,2,2,4,1,16,16,15,6,5,5,3,2,5,4,1,6,2,7,5,3,2,28,1,1,3,2,4,4,1,11.223,243.767,245.45,50,12,13,20,22,16,0,0,5,6,1,1,1,1,1,1,1,3,3,37,37,37,39,38,40,12,11,1,1,1,1,1,4,4,4,4,5,5,5,2, ,1, , ,1,58,4,1,1,1,1,1,0,0,0,0,2, , ,1, ,6,18,1,1,1,0,0,0,None, , , , , , , , , , , , , , , , , , , , , , , , , , , , , , , , , , , , , , , , , , , , , , , , ,58,1,9, ,2, , , , , , , , , , , , , , , , , , , , , , , , , , , , , , , , , , , , , , , , , , , , , , , , , , , , , , ,1,1,1,1,1,1,4,8.706,18.449,21.841,7,1,17,18,19,20,17,35,35,90,0, , , , , , , , , , , , , , , ,13.378,199.793,222.73,24,12,11,15,11,11,11,11,11,4,5,4,4,12.35,67.303,71.865,12,4,1,4,1,5,2,2,1,1,1,3,1,4,1,1,3,2,1,4,5,5,3,3,5,3,2,7,6,7,1,4,4,1,7.084,178.666,179.482,37,20,23,4,1,1,1,1,4,1,37,39,37,4,The introverts I know are very self contained and generally interact with most people online therefore nothing has really changed for them.,40,39,40,6,6,6,3,5,1,3,1,Disappointed and frustrated that I am unable to visit other members of my immediate family. Workwise everything is fine and I am on the whole enjoying working at home in preference to commuting to my
4/26/2020 7:43:17,4/26/2020 8:02:36,0,100,1158,1,4/26/2020 8:02:36, ,1,1,1,1,1,1,4,17.745,33.758,36.342,9, ,17,18,19,19,17,35,35,100,0, , , , , , , , , , , , , , , ,38,162.46,164.216,29,13,13,12,13,12,13,12,13,8,8,8,17,17,17,14,14,8,8,4,4,5,4,7,4,4,4,4,7,4,7,6,4,8,7,8,7,5,4,5,8,7,4,5,6,76.093,284.395,285.361,47,4,3,5,3,4,2,4,3,3,1,3,2,3,2,2,2,4,2,17,17,17,6,6,6,7,2,4,3,3,6,6,6,5,1,2,28,6,6,6,1,3,4,4,23.25,311.563,311.931,53,13,12,21,23,4,6.5,2,7,7,4,4,5,5,1,5,4,3,3,39,41,38,40,40,40,17,15,5,5,6,6,6,7,7,7,7,6,6,2,2, ,3,Portugal, ,1,27,4, , , ,1,1, , , ,2,2, ,1, , ,9,8,1,1,1,0,0,0,"No, thanks.", , , , , , , , , , , , , , , , , , , , , , , , , , , , , , , , , , , , , , , , , , , , , , , , ,26,1,3,Portugal,4, , , , , , , , , , , , , , , , , , , , , , , , , , , , , , , , , , , , , , , , , , , , , , , , , , , , , , ,1,1,1,1,1,1,4,18.889,27.246,30.401,7,2,20,20,20,20,20,40,40,100,0, , , , , , , , , , , , , , , ,3.585,209.541,212.991,19,12,12,15,12,13,15,12,14,4,4,4,4,8.052,50.806,51.54,13,4,2,4,1,1,1,5,1,5,1,5,1,4,4,5,2,4,2,6,6,6,7,1,5,5,1,6,6,6,1,4,3,3,7.403,385.015,385.608,40,20,24,1,1,1,1,1,1,1,37,37,37,4,"because of social distance, extroverts cant relate with others like they want",41,41,41,6,6,6,5,6,1,1,30,"No, but nice study. Good job."
4/27/2020 9:28:03,4/27/2020 9:37:10,0,100,546,1,4/27/2020 9:37:10, ,1,1,1,1,1,1,4,5.283,11.152,12.562,10, ,21,21,21,21,21,40,40,95,30, , , , , , , , , , , , , , , ,3.355,110.427,112.384,28,11,11,13,11,11,11,11,11,5,8,8,11,11,11,11,11,8,8,4,4,8,4,8,4,6,7,4,8,4,8,8,4,8,8,8,8,4,4,4,8,6,4,4,8,3.208,106.793,111.482,64,5,1,3,1,3,1,5,1,4,1,5,1,4,1,3,3,5,1,17,17,11,6,6,6,7,1,5,5,1,7,7,5,5,2,1,28,1,1,7,1,4,4,1,2.303,120.754,122.07,52,2,3,20,24,0,0,0,11,11,1,1,1,1,1,1,1,2,2,37,39,37,41,41,41,14,11,4,4,3,6,2,3,7,7,7,6,6,6,1, ,2, ,35,1,28,3, , , , , , , , , , , ,1, , ,6,2,1,1,1,0,0,0, , , , , , , , , , , , , , , , , , , , , , , , , , , , , , , , , , , , , , , , , , , , , , , , , ,27,2,10, ,4, , , , , , , , , , , , , , , , , , , , , , , , , , , , , , , , , , , , , , , , , , , , , , , , , , , , , , ,1,1,1,1,1,1,4,3.796,8.347,10.115,7,1,21,21,21,21,21,40,40,95,30, , , , , , , , , , , , , , , ,1.932,74.439,76.544,15,11,11,11,11,11,11,11,11,4,4,4,4,14.042,31.819,32.586,14,5,1,5,1,5,1,5,1,5,1,5,1,5,1,3,3,5,1,6,6,6,7,1,5,5,1,7,4,5,1,5,5,1,2.851,90.587,94.9,41,20,24,1,1,1,1,1,1,1,37,38,37,4,"Extroverts gain their social energy by being around people, so it's a struggle for them to not have a lot of social contact right now",41,41,41,6,6,3,5,5,1,1,70, 
4/26/2020 9:10:56,4/26/2020 9:33:16,0,100,1340,1,4/26/2020 9:33:17, ,1,1,1,1,1,1,4,154.864,228.757,232.223,12, ,17,18,18,19,19,32,40,80,15, , , , , , , , , , , , , , , ,9.748,234.137,237.959,35,11,11,11,12,12,11,11,11,8,7,8,11,12,11,11,11,6,4,4,6,6,4,4,4,5,5,6,5,4,4,6,4,5,5,6,6,4,4,5,6,5,4,4,5,5.247,200.88,202.137,51,3,2,2,2,1,1,2,2,1,2,3,1,4,1,3,2,3,1,17,17,11,5,5,5,3,1,4,4,2,4,5,6,3,4,2,27,1,6,5,2,3,3,3,7.275,246.553,247.87,58,13,13,21,23,8,2,1,9,9,1,1,1,4,4,5,1,3,2,37,39,38,38,39,39,14,12,3,3,2,4,5,5,5,4,5,4,4,5,2, ,2, ,51,1,32,4,1,1,1,1,1,0,0,2,0,2, ,1, , ,7,7,1,1,1,0,0,0, , , , , , , , , , , , , , , , , , , , , , , , , , , , , , , , , , , , , , , , , , , , , , , , , ,31,1,10, ,5, , , , , , , , , , , , , , , , , , , , , , , , , , , , , , , , , , , , , , , , , , , , , , , , , , , , , , ,1,1,1,1,1,1,4,9.399,24.639,28.432,7,2,20,18,19,19,19,40,40,75,41, , , , , , , , , , , , , , , ,22.245,263.562,267.033,42,14,12,11,15,13,12,12,11,5,5,4,4,6.409,106.895,109.465,16,3,2,3,1,2,1,2,1,1,1,3,3,3,4,2,1,3,1,5,5,6,5,3,4,3,4,6,6,6,3,1,2,3,15.107,230.441,232.691,40,21,21,4,1,4,5,1,5,4,37,37,37,4,I feel like being cut off from people socially would have a lot more of an impact for extroverts.,39,39,41,4,4,4,6,6,1,1,100,Overall I was happy to go back to work last week. I was a little worried about the situation and how everyone was treating social distancing in the workplace. I was happy I could still do meetings thr
4/26/2020 7:49:41,4/26/2020 8:22:12,0,100,1951,1,4/26/2020 8:22:13, ,1,1,1,1,1,1,4,16.913,29.714,36.858,8, ,17,17,19,19,15,40,40,80,0, , , , , , , , , , , , , , , ,558.281,1003.816,1007.876,29,11,11,13,13,11,11,11,12,7,7,7,12,12,11,11,11,7,8,4,4,8,4,8,4,4,8,4,4,4,8,8,4,4,5,6,8,7,6,8,8,8,4,6,5,5.516,167.41,169.18,46,5,1,4,1,5,1,5,1,5,1,5,1,3,2,5,5,4,2,17,17,17,6,6,6,6,1,5,4,1,7,5,6,4,4,2,28,1,7,6,1,4,4,1,184.308,327.434,330.727,49,3,3,21,22,1,3,5,9,9,4,1,1,1,1,1,1,3,2,37,40,37,41,41,41,17,14,5,5,5,7,6,6,4,4,5,6,6,3,2, ,2, ,39,1,54,4,1,1,1,1,1,0,0,0,0,1, ,1, , ,9,20,1,1,1,3,7,0,"One of the questions mentioned ""ﬁshing from river band"" instead of ""ﬁshing from river bank"".", , , , , , , , , , , , , , , , , , , , , , , , , , , , , , , , , , , , , , , , , , , , , , , , ,54,1,10, ,4, , , , , , , , , , , , , , , , , , , , , , , , , , , , , , , , , , , , , , , , , , , , , , , , , , , , , , ,1,1,1,1,1,1,4,78.738,328.871,379.887,7,1,17,19,19,20,19,40,40,80,0, , , , , , , , , , , , , , , ,74.971,569.8,571.919,40,11,11,13,11,11,11,11,12,4,4,4,4,2.715,68.134,71.032,15,4,1,5,1,4,1,5,2,5,1,5,1,3,3,3,4,3,2,6,6,6,6,1,5,4,1,7,6,6,1,4,5,1,160.325,307.733,315.2,35,20,23,1,1,1,1,1,1,1,37,39,37,4,They are more social.,41,41,41,6,6,4,7,7,1,1,1,no
4/26/2020 11:18:55,4/26/2020 11:30:44,0,100,708,1,4/26/2020 11:30:45, ,1,1,1,1,1,1,4,24.36,49.171,50.498,8, ,18,19,17,19,16,52,40,66,-13, , , , , , , , , , , , , , , ,2.654,80.414,81.326,35,16,12,15,14,15,15,12,15,7,6,7,11,11,11,11,11,7,7,5,5,5,5,7,7,5,5,5,6,8,7,7,5,5,5,7,7,7,5,7,7,7,8,6,4,27.549,237.977,239.36,49,4,2,4,4,4,2,2,4,2,5,2,5,4,5,4,4,4,2,16,16,16,3,2,3,1,4,4,3,4,3,1,5,3,5,2,27,1,2,4,4,1,4,2,4.858,134.37,135.358,60,12,2,24,20,3,0,0,5,4,9,9,9,9,10,9,9,5,5,37,37,37,40,40,40,16,16,5,6,6,2,5,6,6,6,6,3,5,5,2, ,2, ,39,1,35,4,1,1,1,1,1,0,1,1,1,1,1, , , ,8,9,1,1,1,0,0,0, , , , , , , , , , , , , , , , , , , , , , , , , , , , , , , , , , , , , , , , , , , , , , , , , ,34,1,10, ,4, , , , , , , , , , , , , , , , , , , , , , , , , , , , , , , , , , , , , , , , , , , , , , , , , , , , , , ,1,1,1,1,1,1,4,21.569,36.578,38.858,7,1,20,20,19,19,20,49,40,86,31, , , , , , , , , , , , , , , ,8.525,117.101,119.464,33,15,12,16,15,12,15,16,12,5,7,5,7,3.152,52.794,54.074,16,4,1,4,3,4,2,4,4,4,4,4,4,4,4,3,4,3,2,3,2,4,2,4,3,3,4,5,2,2,4,2,2,4,22.265,928.574,929.715,42,24,20,9,9,5,9,9,9,9,39,39,38,4,Extroverts feed off the energy of people around them.  Introverts are ok being by themselves.,40,40,40,5,4,5,5,5,1,3,0,The completely disorganized and disastrous handling of the covid crisis by our government
4/26/2020 19:59:51,4/26/2020 20:22:51,0,100,1379,1,4/26/2020 20:22:51, ,1,1,1,1,1,1,4,2.772,12.859,15.5,7, ,15,17,17,18,15,40,40,8,-30, , , , , , , , , , , , , , , ,7.567,182.703,183.894,39,11,12,12,14,13,12,12,11,3,8,6,16,17,12,16,11,6,5,4,4,6,5,6,4,5,4,4,4,4,5,5,4,5,5,7,7,5,4,4,6,5,4,4,6,3.818,637.462,638.531,63,3,2,4,1,5,1,4,2,2,1,3,2,4,2,3,1,3,1,13,13,16,6,6,6,2,2,4,3,1,3,2,6,5,2,1,28,1,7,6,1,3,3,2,7.974,211.652,212.985,62,11,12,21,23,3,0,0,8,6,4,1,4,4,5,1,1,1,2,37,40,37,40,39,39,16,16,6,6,6,6,6,6,6,5,6,5,5,4,1, ,2, ,5,1,35,4, , ,1, ,1, , ,1, ,1, ,1, , ,7,10,1,1, ,1,2, , , , , , , , , , , , , , , , , , , , , , , , , , , , , , , , , , , , , , , , , , , , , , , , , , ,35,2,10, ,4, , , , , , , , , , , , , , , , , , , , , , , , , , , , , , , , , , , , , , , , , , , , , , , , , , , , , , ,1,1,1,1,1,1,4,31.991,51.15,54.07,9,1,16,17,17,17,15,40,40,81,-21, , , , , , , , , , , , , , , ,2.04,134.225,136.808,26,11,11,13,12,13,12,12,11,5,4,4,4,5.56,94.8,96.296,17,3,2,4,2,3,1,4,1,3,1,3,1,4,1,3,2,3,1,5,5,5,3,2,4,3,1,5,5,5,1,3,3,3,15.163,136.618,138.316,42,21,23,1,1,1,1,4,4,1,37,39,37,4,Extroverts would miss human contact more than introverts.,40,40,40,5,5,3,5,5,1,3,50,The lock down is really starting to wear on me.
4/27/2020 2:15:11,4/27/2020 2:43:51,0,100,1719,1,4/27/2020 2:43:51, ,1,1,1,1,1,1,4,2.798,11.005,12.015,11, ,20,18,19,19,20,37,40,90,30, , , , , , , , , , , , , , , ,3.982,344.942,444.202,30,12,12,12,12,13,12,13,12,8,8,8,11,11,11,11,11,6,5,6,6,6,6,6,6,6,6,6,6,6,6,6,6,7,6,6,6,5,6,5,6,7,6,6,6,3.576,133.415,134.229,64,2,3,4,2,4,5,4,2,4,1,4,4,4,4,4,4,4,1,16,16,15,5,5,5,5,4,3,3,3,4,6,5,3,3,4,26,5,4,4,1,4,4,4,137.81,439.739,440.934,52,13,13,23,23,0,0,7,9,8,4,4,4,4,4,4,4,4,4,37,37,37,41,40,40,16,15,5,5,5,5,5,4,4,4,4,4,4,4,2, ,1, , ,1,31,4, ,1, , ,1, ,1, , ,1, , , ,1,6,31,1,1,1,0,0,0, , , , , , , , , , , , , , , , , , , , , , , , , , , , , , , , , , , , , , , , , , , , , , , , , ,31,1,9, ,4, , , , , , , , , , , , , , , , , , , , , , , , , , , , , , , , , , , , , , , , , , , , , , , , , , , , , , ,1,1,1,1,1,1,4,4.411,26.382,119.298,11,1,20,20,20,20,20,40,40,75,41, , , , , , , , , , , , , , , ,2.83,394.33,395.353,50,16,16,15,16,15,16,16,16,7,7,7,7,76.852,88.644,89.491,15,4,2,4,3,4,3,3,2,1,2,3,1,5,4,3,1,5,2,6,6,6,5,5,5,5,5,5,6,7,1,4,5,4,2.874,389.476,390.432,40,21,23,1,4,4,4,4,4,4,37,38,37,3, ,40,40,40,5,5,5,2,2,1,3,0, 
4/26/2020 8:50:56,4/26/2020 9:02:02,0,100,665,1,4/26/2020 9:02:03, ,1,1,1,1,1,1,4,2.553,20.981,26.202,10, ,19,18,19,19,18,40,40,73,-6, , , , , , , , , , , , , , , ,3.295,143.269,144.539,50,12,12,13,12,11,11,11,12,8,7,8,11,13,11,12,11,6,6,5,4,7,4,7,4,4,7,4,6,4,8,7,7,5,6,4,7,5,4,7,7,7,4,4,6,4.04,132.037,132.813,58,2,3,2,1,1,1,4,2,4,1,4,2,4,2,3,1,3,1,16,15,17,6,5,5,5,1,4,4,1,5,4,6,4,1,1,27,1,6,6,1,4,4,1,1.492,127.799,128.99,62,12,13,21,20,7,4.6,1.5,8,8,1,1,1,4,1,1,1,4,4,37,40,37,40,41,40,17,11,4,4,2,6,5,2,4,5,6,5,5,4,2, ,2, ,49,1,51,4,1,1,1,1,1,0,0,1,1,2, ,1, , ,9,8,1,1,1,6,2,4, , , , , , , , , , , , , , , , , , , , , , , , , , , , , , , , , , , , , , , , , , , , , , , , , ,51,1,10, ,5, , , , , , , , , , , , , , , , , , , , , , , , , , , , , , , , , , , , , , , , , , , , , , , , , , , , , , ,1,1,1,1,1,1,4,1.311,8.584,10.018,11,2,18,19,20,20,17,41,41,40,-1, , , , , , , , , , , , , , , ,2.502,78.252,79.229,36,12,12,14,14,12,12,12,11,4,4,4,4,1.905,30.397,31.606,15,3,3,2,3,1,1,5,1,4,1,4,2,3,3,2,1,4,1,4,4,4,4,4,4,4,1,4,4,6,1,4,4,2,2.159,113.205,115.057,42,20,23,1,1,1,4,1,4,1,37,39,37,3,both have needs for contact,40,41,41,5,5,4,5,5,1,3,7,I want to go out to eat at my favorite restaurant
4/26/2020 11:10:13,4/26/2020 11:27:08,0,100,1014,1,4/26/2020 11:27:08, ,1,1,1,1,1,1,4,1.566,38.074,41.683,15, ,15,16,15,15,15,36,40,100,1, , , , , , , , , , , , , , , ,1.79,102.046,102.775,46,14,14,14,14,14,14,14,14,7,7,8,12,14,11,11,11,7,5,7,4,4,6,8,8,6,6,4,5,8,8,6,6,6, ,7,8,7,4,6,6,8,7,4,4,4.975,270.127,270.138,110,3,3,3,4,3,3,4,4,3,3,4,4,2,3,3,4,4,3,16,17,14,2,3,4,1,5,1,1,3,4,4,4,1,5,5,27,4,6,5,1,4,5,3,6.442,221.162,222.006,79,1,3,21,22,0,0,4,7,7,9,10,10,9,5,10,10,4,5,41,39,39,40,40,40,16,14,4,3,3,1,1,4,3,4,4,4,4,3,2, ,3,Portugal, ,1,37,4,1,1,1,1,1,0,0,0,0,2, ,1, , ,4,100,1,1,1,0,1,0,NA, , , , , , , , , , , , , , , , , , , , , , , , , , , , , , , , , , , , , , , , , , , , , , , , ,36,1,3,Portugal,5, , , , , , , , , , , , , , , , , , , , , , , , , , , , , , , , , , , , , , , , , , , , , , , , , , , , , , ,1,1,1,1,1,1,4,11.454,36.454,39.646,13,1,18,16,18,17,17,35,40,88,-1, , , , , , , , , , , , , , , ,4.682,139.207,141.832,58,14,16,16,14,16,15,12,12,6,7,6,6,9.264,129.956,130.61,24,2,2,3,4,3,3,3,3,3,4,3,3,5,3,3,3,3,3,2,2,2,1,4,2,2,3,4,6,6,1,4,5,3,38.79,226.916,227.695,59,21,23,9,9,10,4,5,10,10,40,38,37,4,Because extroverts have more need of relationships with people,39,39,39,3,4,5,5,5,3,1,51, 
4/27/2020 15:56:09,4/27/2020 16:08:51,0,100,761,1,4/27/2020 16:08:51, ,1,1,1,1,1,1,4,6.907,13.34,14.943,7, ,21,21,21,21,21,35,35,100,-25, , , , , , , , , , , , , , , ,6.723,148.508,150.082,33,11,12,11,11,11,11,11,11,7,7,8,11,11,11,11,11,6,6,4,4,6,4,7,4,4,6,4,7,5,5,6,4,7,6,7,6,5,4,5,6,7,4,4,6,4.402,186.203,186.881,49,4,2,5,1,5,1,5,1,5,1,5,1,5,5,5,4,3,1,17,17,15,6,6,6,4,1,5,5,1,4,2,5,2,5,1,28,2,7,7,1,3,4,1,3.691,165.007,165.706,44,11,12,21,21,3,4,3,11,11,1,1,1,1,1,1,1,2,2,37,39,37,41,41,41,17,14,5,5,5,3,7,7,7,5,5,6,6,5,2, ,1, , ,1,25,4,1,1,1,1,1,0,0,0,0,3,1, , , ,8,10,1,1,1,0,0,0, , , , , , , , , , , , , , , , , , , , , , , , , , , , , , , , , , , , , , , , , , , , , , , , , ,24,1,9, ,4, , , , , , , , , , , , , , , , , , , , , , , , , , , , , , , , , , , , , , , , , , , , , , , , , , , , , , ,1,1,1,1,1,1,4,13.78,19.076,20.579,8,1,20,21,21,21,20,30,37,100,-50, , , , , , , , , , , , , , , ,2.831,92.215,93.466,17,11,13,15,14,13,11,14,11,4,4,4,4,7.777,65.006,66.062,12,3,2,4,1,3,1,4,1,4,1,5,1,5,1,3,3,4,1,4,6,5,4,2,5,4,1,3,5,6,1,3,4,1,9.276,133.346,134.09,36,21,21,4,1,1,1,1,4,1,37,39,37,3,Introverts may struggle with family or housemates being around for longer; extroverts could find it difficult that they can't go meet their friends,41,41,41,5,5,4,5,3,1,3,0, 
4/26/2020 7:51:52,4/26/2020 8:10:46,0,100,1133,1,4/26/2020 8:10:47, ,1,1,1,1,1,1,4,4.758,48.57,49.972,8, ,19,19,19,20,19,65,60,100,15, , , , , , , , , , , , , , , ,8.825,238.74,240.514,41,12,12,15,12,12,12,11,12,8,7,6,12,12,12,12,12,6,6,4,4,5,6,5,4,5,5,4,7,4,4,5,5,6,6,6,8,4,4,4,7,6,4,4,6,12.268,248.549,249.209,57,5,1,5,1,5,1,4,3,4,2,4,1,2,3,5,3,5,1,17,17,15,5,6,5,7,2,5,4,1,6,7,6,4,1,1,27,1,1,5,1,3,4,2,6.592,246.982,248.388,50,12,11,21,24,2,6,2,8,8,1,1,1,4,1,1,1,3,3,37,38,37,41,41,41,16,15,5,5,3,3,5,4,6,5,6,6,6,6,2, ,3,Poland, ,1,26,3, , , , , , , , , , , ,1, , ,5,15,1,1,1,0,0,0, , , , , , , , , , , , , , , , , , , , , , , , , , , , , , , , , , , , , , , , , , , , , , , , , ,25,1,3,Poland,2, , , , , , , , , , , , , , , , , , , , , , , , , , , , , , , , , , , , , , , , , , , , , , , , , , , , , , ,1,1,1,1,1,1,4,20.649,35.165,37.928,7,1,19,19,19,20,19,45,40,85,-15, , , , , , , , , , , , , , , ,3.211,171.711,173.47,32,12,12,14,12,11,12,11,12,4,6,4,5,6.586,64.647,65.289,18,2,3,2,1,2,1,3,3,1,1,3,2,2,3,4,3,3,1,5,6,5,5,1,4,4,2,5,6,6,1,4,4,4,3.432,159.722,160.172,38,21,24,4,1,4,4,1,1,1,37,39,37,4,I think extroverts suffer more in the current situation because of their nature. I think that introverts tolerate isolation a bit easier.,41,39,41,6,6,3,5,5,1,2,25, 
4/27/2020 11:57:08,4/27/2020 12:18:37,0,100,1288,1,4/27/2020 12:18:37, ,1,1,1,1,1,1,4,63.021,87.187,87.967,8, ,19,20,20,20,20,50,39,70,-5, , , , , , , , , , , , , , , ,12.656,246.235,247.799,34,11,11,15,11,12,11,11,11,8,8,8,12,12,11,12,11,4,4,4,5,8,4,4,4,4,4,5,4,4,4,4,4,4,4,4,4,4,4,4,4,4,4,4,4,6.75,200.115,201.958,46,3,3,3,2,5,4,4,1,4,1,4,2,4,2,1,3,4,1,15,15,13,4,4,5,3,2,4,4,3,7,7,7,4,2,2,27,1,7,7,1,3,5,1,7.753,250.627,251.799,49,12,12,21,23,2.5,6,0,9,9,1,1,1,1,1, , ,3,3,37,40,37,40,40,39,17,17,5,5,1,5,6,1,6,6,6,5,5,3,2, ,3,Ireland, ,1,24,4,1,1,1,1,1,0,0,0,0,1, ,1, , ,7,100,1,1,1,4,4,0,N/A, , , , , , , , , , , , , , , , , , , , , , , , , , , , , , , , , , , , , , , , , , , , , , , , ,24,1,6, ,4, , , , , , , , , , , , , , , , , , , , , , , , , , , , , , , , , , , , , , , , , , , , , , , , , , , , , , ,1,1,1,1,1,1,4,9.853,40.644,41.672,18,1,19,19,18,17,19,50,39,60,-10, , , , , , , , , , , , , , , ,2.223,109.536,110.005,63,13,14,13,13,13,13,13,13,5,6,5,5,2.101,105.694,109.274,24,3,3,4,3,5,3,3,3,3,4,4,3,4,3,2,4,2,2,3,3,2,1,2,4,3,2,4,7,4,2,4,5,2,5.901,207.771,209.021,78,21,21,4,4,4,4,4,5,4,38,40,38,4,Extroverts are more outgoing and rely on interaction with others more so than intorverts,39,39,39,4,4,1,9,9,1,3,0, 
4/27/2020 3:16:51,4/27/2020 3:35:22,0,100,1110,1,4/27/2020 3:35:23, ,1,1,1,1,1,1,4,37.418,56.576,57.636,7, ,18,19,19,19,17,40,40,50,10, , , , , , , , , , , , , , , ,7.838,175.53,176.601,43,12,11,13,14,13,11,11,11,8,8,8,11,12,11,11,11,4,5,4,4,5,4,6,4,5,6,4,5,5,4,5,4,5,6,4,8,5,4,4,6,5,4,4,6,7.631,222.914,223.566,50,3,1,2,2,2,3,2,3,2,3,2,2,4,3,4,2,2,1,15,15,13,4,4,4,2,3,3,3,3,6,7,5,2,4,2,27,1,4,3,2,1,3,2,15.419,292.352,293.405,50,11,14,21,23,5,2,0,5,5,4,4,4,5,5,5,1,3,3,37,37,38,40,39,40,16,11,2,2,3,3,3,3,5,4,6,4,4,5,2, ,1, , ,1,41,4,1,1,1,1,1,0,1,2,0,1, ,1, , ,6,93,1,1,1,0,0,0, , , , , , , , , , , , , , , , , , , , , , , , , , , , , , , , , , , , , , , , , , , , , , , , , ,40,1,9, ,6, , , , , , , , , , , , , , , , , , , , , , , , , , , , , , , , , , , , , , , , , , , , , , , , , , , , , , ,1,1,1,1,1,1,4,14.077,21.964,22.845,7,1,20,20,20,20,19,40,40,50,-10, , , , , , , , , , , , , , , ,3.125,115.373,116.125,36,11,11,13,12,12,11,11,11,5,4,5,4,8.34,77.324,77.998,16,4,1,4,2,3,1,4,4,3,2,3,3,4,2,3,2,4,1,4,4,4,3,4,4,3,3,6,7,7,2,1,4,1,7.306,130.863,131.686,39,21,23,4,1,1,1,4,4,1,37,37,37,4,"Extroverts need an audience but there is less of one currently. Introverts at least in some cases would feel the life they want to live is much more legitimate now, seen less as an unusual choice.",39,39,40,5,5,6,3,3,1,3,0, 
4/28/2020 0:51:57,4/28/2020 1:05:47,0,100,829,1,4/28/2020 1:05:48, ,1,1,1,1,1,1,4,13.135,21.453,23.822,7, ,19,19,19,20,19,40,40,87,0, , , , , , , , , , , , , , , ,8.822,227.9,231.008,45,12,12,13,14,12,12,12,12,8,7,8,14,14,11,11,11,4,4,4,4,4,4,6,4,4,4,4,5,4,6,4,4,7,6,5,8,5,4,4,8,4,4,4,6,6.92,155.781,156.588,45,5,1,4,1,5,1,3,3,3,1,3,1,2,2,3,1,4,1,17,17,14,6,6,5,6,4,5,4,1,7,7,5,4,2,3,28,1,5,4,2,3,3,2,6.35,175.925,176.892,45,14,11,21,23,1,1,.5,4,4,1,1,1,1,1,4,1,3,3,37,37,37,39,41,40,16,16,2,2,2,2,2,3,5,5,5,4,4,4,2, ,1, , ,1,41,4, , , ,1,1, , , ,1,1, ,1, , ,5,13,1,1,1,0,0,0,No comments, , , , , , , , , , , , , , , , , , , , , , , , , , , , , , , , , , , , , , , , , , , , , , , , ,41,1,9, ,3, , , , , , , , , , , , , , , , , , , , , , , , , , , , , , , , , , , , , , , , , , , , , , , , , , , , , , ,1,1,1,1,1,1,4,4.903,12.643,13.715,7,2,18,18,19,18,19,40,40,84,0, , , , , , , , , , , , , , , ,5.833,414.359,415.927,49,12,12,14,14,12,13,12,11,4,4,4,4,6.555,38.157,39.528,13,4,1,4,1,3,1,4,1,3,1,3,1,4,2,4,1,4,1,5,5,5,7,5,4,4,1,7,7,5,1,3,3,2,4.318,104.879,105.674,36,21,21,1,1,1,1,1,1,1,37,37,37,4,They need a thrill to stimulate their blood flow/endorphins.  Being in lockdown can prevent some of this being achieved.,39,39,39,4,4,4,5,5,1,3,4, 
4/26/2020 7:43:43,4/26/2020 8:01:20,0,100,1056,1,4/26/2020 8:01:20, ,1,1,1,1,1,1,4,10.894,22.079,23.336,7, ,15,15,15,15,15,40,40,49,-30, , , , , , , , , , , , , , , ,8.949,176.072,178.657,36,15,15,15,15,15,16,14,14,8,8,8,11,11,11,11,11,4,6,4,7,4,4,6,4,4,4,7,5,5,6,4,6,4,4,7,6,4,4,4,4,6,6,4,4,10.415,210.474,211.632,44,1,3,3,1,1,2,3,3,2,1,1,4,5,2,1,1,2,1,17,17,15,1,1,3,1,4,3,2,2,1,5,7,1,4,1,26,1,1,1,3,1,1,3,12.707,234.095,236.177,49,3,12,22,22,0,15,0,8,6,4,5,5,5,1,4,1,5,5,38,37,37,39,38,40,12,11,1,1,5,1,5,6,1,1,3,1,1,5,2, ,1, , ,1,51,4,1,1,1,1,1,0,0,0,0,1, ,1, , ,6,30,1,1,1,0,0,0,"I've generally found it hard to focus and get motivated, worried about the virus, job security and finances", , , , , , , , , , , , , , , , , , , , , , , , , , , , , , , , , , , , , , , , , , , , , , , , ,51,1,9, ,4, , , , , , , , , , , , , , , , , , , , , , , , , , , , , , , , , , , , , , , , , , , , , , , , , , , , , , ,1,1,1,1,1,1,4,5.921,32.869,35.841,9,1,16,15,16,15,15,38,39,20,-39, , , , , , , , , , , , , , , ,9.746,129.422,131.107,28,15,15,14,15,15,15,12,11,4,4,4,4,7.856,265.089,266.101,12,1,1,2,2,1,1,3,2,2,1,2,3,3,1,1,1,3,1,1,1,1,1,3,2,2,3,1,4,2,3,1,1,3,8.565,175.464,176.968,34,21,20,5,5,5,5,1,4,4,39,37,37,4,because they seek others and acceptance,38,37,40,1,1,1,5,5,1,3,0,"The English in this survey isn't great

I have some paranoia about my work situation whilst I am working from home, maybe 80% of my company are at work but I am not and it's playing on my mind"
4/28/2020 12:14:52,4/28/2020 12:35:28,0,100,1235,1,4/28/2020 12:35:29, ,1,1,1,1,1,1,4,11.433,166.498,173.2,9, ,17,17,17,17,17,45,40,80,-30, , , , , , , , , , , , , , , ,5.297,171.816,172.69,58,16,16,16,12,15,15,12,12,8,8,8,12,11,12,11,11,8,7,4,6,7,4,7,4,5,4,6,8,5,7,8,4,8,4,8,8,5,6,4,7,7,4,6,4,2.917,384.305,384.89,61,1,4,1,1,1,1,3,2,2,1,3,1,2,4,1,3,1,2,17,17,17,4,4,4,3,3,3,3,3,2,6,4,4,2,2,28,1,3,4,2,2,3,2,6.331,207.108,208.702,62,14,13,21,22,7,3,2,5,6,5,5,5,9,9,5,1,3,3,40,39,37,39,39,39,13,13,3,3,5,5,5,5,4,4,4,4,4,2,2, ,2, ,51,1,26,4, , , , ,1, , , , ,1, ,1, , ,7,10,1,1,1,0,0,0, , , , , , , , , , , , , , , , , , , , , , , , , , , , , , , , , , , , , , , , , , , , , , , , , ,25,1,10, ,4, , , , , , , , , , , , , , , , , , , , , , , , , , , , , , , , , , , , , , , , , , , , , , , , , , , , , , ,1,1,1,1,1,1,4,1.525,8.312,9.364,8,1,17,19,19,19,19,48,40,80,-15, , , , , , , , , , , , , , , ,2.925,181.9,184.93,63,13,13,15,13,13,13,13,12,6,6,6,6,7.447,51.037,51.651,18,2,3,2,2,3,2,3,2,3,2,2,2,3,3,2,3,3,2,4,4,4,3,3,3,3,3,2,6,6,2,2,3,2,4.764,110.485,112.226,40,21,23,4,4,4,4,4,4,1,39,38,37,4,"While introverts and extroverts require social contact to remain healthy, extroverts typically require more social contact to maintain their mental health and tend to seek it out more often. Introvert",39,39,39,4,4,2,9,9,1,1,0, 
4/27/2020 1:36:20,4/27/2020 1:53:45,0,100,1045,1,4/27/2020 1:53:45, ,1,1,1,1,1,1,4,12.445,21.34,23.15,7, ,17,18,19,19,20,40,40,95,-10, , , , , , , , , , , , , , , ,7.307,106.429,108.022,36,12,12,12,13,12,13,11,13,7,8,8,11,11,11,12,11,5,7,4,4,6,4,6,4,4,5,4,5,4,6,6,4,6,5,5,6,4,4,6,6,6,4,4,6,4.585,145.272,148.023,49,3,1,3,1,3,1,4,1,3,1,3,1,4,1,3,2,3,1,16,16,16,5,5,5,6,1,4,4,1,6,5,5,4,2,2,27,3,5,5,2,4,4,2,218.92,351.233,352.235,44,13,13,20,23,8,1,0,8,8,1,1,1,1,1,1,1,3,2,37,38,37,40,40,39,15,12,4,4,4,3,4,4,5,6,6,4,4,3,2, ,1, , ,1,48,4,1,1,1,1,1,0,0,1,0,3, ,1, , ,8,80,1,1,1,0,0,0,"You spelt 'children' wrong on the last slide, but great other than that :)", , , , , , , , , , , , , , , , , , , , , , , , , , , , , , , , , , , , , , , , , , , , , , , , ,47,1,9, ,4, , , , , , , , , , , , , , , , , , , , , , , , , , , , , , , , , , , , , , , , , , , , , , , , , , , , , , ,1,1,1,1,1,1,4,8.844,21.307,23.962,7,1,17,19,19,19,20,40,40,99,-2, , , , , , , , , , , , , , , ,2.814,70.703,73.258,16,11,11,12,12,12,12,11,11,4,4,4,4,5.373,43.165,47.979,14,4,1,4,1,4,1,4,2,4,1,4,1,4,2,4,2,4,1,5,5,5,6,1,4,4,1,6,6,6,2,4,3,1,5.012,95.427,96.248,34,20,24,1,1,1,1,1,1,1,37,38,37,3,"While extroverts may be more used to people around them, and obviously missing that right now, introverts have other distractions that they will be missing out on - such as going outdoors and enjoying",41,41,41,6,6,4,5,5,1,3,2, 
4/26/2020 8:02:08,4/26/2020 8:30:44,0,100,1716,1,4/26/2020 8:30:44, ,1,1,1,1,1,1,4,10.613,30.301,31.495,16, ,17,17,17,18,16,40,40,72,14, , , , , , , , , , , , , , , ,5.377,186.23,186.824,112,15,16,13,15,14,15,13,14,8,8,8,11,11,12,11,11,7,6,4,4,4,4,7,4,4,5,4,6,4,5,7,5,5,5,5,8,5,4,7,6,8,4,4,5,1.4,177.101,178.22,80,2,4,3,2,1,2,4,1,4,1,4,2,2,4,3,2,2,2,17,17,16,6,6,6,3,3,3,3,2,5,2,3,4,1,2,28,3,6,6,1,4,4,3,11.638,206.432,206.853,99,2,3,20,22,1,0,0,5,4,9,4,5,4,5,5,5,5,4,39,39,38,39,39,39,15,13,4,3,3,5,5,1,3,4,5,4,3,4,2, ,3,Ireland, ,1,41,4, , , ,1,1, , , ,1,1, ,1, , ,6,100,1,1, ,4, , , , , , , , , , , , , , , , , , , , , , , , , , , , , , , , , , , , , , , , , , , , , , , , , , , ,41,1,6, ,4, , , , , , , , , , , , , , , , , , , , , , , , , , , , , , , , , , , , , , , , , , , , , , , , , , , , , , ,1,1,1,1,1,1,4,11.049,18.244,19.474,7,1,18,17,20,19,16,40,40,75,-15, , , , , , , , , , , , , , , ,2.792,156.601,158.601,18,13,15,12,16,13,15,12,13,4,5,4,4,7.226,43.872,44.943,12,2,4,2,4,1,4,4,3,2,2,3,4,4,4,3,2,3,2,5,4,5,2,3,4,2,3,5,3,2,1,4,4,3,4.1,242.202,243.292,34,22,23,5,9,5,5,4,4,4,39,40,37,4,People who are most used to going out and being with people may feel the worse due to the restrictions,38,38,39,2,2,3,4,6,1,3,0,"At the start I enjoyed having more time at home, but it has slowly grown frustrating, all members of the house are getting short tempered."
4/26/2020 10:29:44,4/26/2020 10:58:44,0,100,1740,1,4/26/2020 10:58:44, ,1,1,1,1,1,1,4,5.261,69.375,75.076,10, ,19,19,20,18,17,40,40,90,-5, , , , , , , , , , , , , , , ,3.728,268.503,269.442,58,12,11,12,13,13,12,13,12,7,8,8,13,14,12,11,12,8,8,6,4,6,4,7,5,7,7,4,7,5,8,7,5,7,4,8,8,5,8,6,8,7,4,8,4,1.999,429.196,429.66,120,4,2,4,1,4,1,4,1,4,2,4,2,4,2,3,2,4,2,16,16,14,5,5,5,6,2,4,4,2,3,2,2,2,4,3,27,7,4,6,1,4,4,4,7.745,564.278,564.861,110,12,12,21,22,1.3,.8,.5,9,9,5,5,5,5,5,5,5,4,4,37,38,37,40,40,40,17,17,3,3,3,4,6,4,5,5,5,6,6,6,1, ,1, , ,1,32,4, , , , ,1, , , , ,1,1, , , ,6,20,1,1,1,0,0,0,thank you, , , , , , , , , , , , , , , , , , , , , , , , , , , , , , , , , , , , , , , , , , , , , , , , ,32,2,9, ,5, , , , , , , , , , , , , , , , , , , , , , , , , , , , , , , , , , , , , , , , , , , , , , , , , , , , , , ,1,1,1,1,1,1,4,1.899,353.172,358.569,29,2,17,19,19,17,16,35,46,80,-30, , , , , , , , , , , , , , , ,5.401,381.153,382.213,117,13,12,13,13,13,12,12,13,4,7,4,6,4.115,82.967,84.87,28,3,2,4,1,4,1,4,3,3,1,3,2,4,3,3,2,4,2,5,5,5,3,3,4,3,2,2,2,2,1,4,4,4,8.717,204.523,205.518,90,21,23,5,5,5,5,5,5,9,38,40,37,4,Because they not use to not being around people,41,40,41,6,6,6,7,7,1,3,0,I'm getting use to it now but lockdown was hard in week 3 but now I am grateful to be at home and safe. I try to count my blessings. Thank you for the study. Most of my work is on pc and I'm able to u
4/26/2020 7:42:28,4/26/2020 7:52:57,0,100,628,1,4/26/2020 7:52:57, ,1,1,1,1,1,1,4,57.984,66.182,68.272,7, ,16,18,19,16,19,46,47,87,36, , , , , , , , , , , , , , , ,7.875,102.931,104.071,40,12,12,14,13,13,14,12,13,7,7,6,12,12,13,11,11,7,7,5,5,6,4,6,4,7,6,5,7,4,7,7,4,7,6,7,8,5,6,6,8,6,4,5,5,3.945,129.775,130.72,52,4,1,3,2,4,3,3,4,3,1,4,2,4,2,3,2,4,1,16,16,12,5,5,5,5,3,3,4,4,6,6,6,4,2,3,27,4,3,6,2,3,5,4,4.807,106.933,107.855,48,12,12,21,23,2,1,5,8,6,5,5,5,9,9, ,4,5,4,39,40,37,39,40,40,16,13,4,4,3,4,4,6,6,6,6,5,5,2,2, ,3,Portugal, ,1,33,4,1,1,1,1,1,0,0,0,0,1, ,1, , ,7,20,1,1,1,0,0,0, , , , , , , , , , , , , , , , , , , , , , , , , , , , , , , , , , , , , , , , , , , , , , , , , ,32,1,3,Portugal,5, , , , , , , , , , , , , , , , , , , , , , , , , , , , , , , , , , , , , , , , , , , , , , , , , , , , , , ,1,1,1,1,1,1,4,5.955,18.22,19.182,8,1,17,19,19,18,17,41,40,81,25, , , , , , , , , , , , , , , ,2.621,142.526,145.022,49,13,13,14,12,12,13,13,12,4,4,4,4,5.338,29.55,31.049,13,4,1,4,1,3,3,4,2,3,1,3,3,3,3,3,3,3,3,5,4,4,4,4,3,2,3,7,6,6,1,3,4,3,2.805,81.129,84.71,39,20,23,4,1,1,5,4,5,1,38,40,37,4,People with more  need of social interaction are able to suffer more due to the lack of that interaction,39,39,38,5,5,5,9,9,3,1,0, 
4/26/2020 8:17:30,4/26/2020 8:26:52,0,100,561,1,4/26/2020 8:26:53, ,1,1,1,1,1,1,4,1.024,18.247,19.4,19, ,18,19,20,17,20,40,40,79,-17, , , , , , , , , , , , , , , ,6.988,100.373,101.623,71,14,14,15,14,14,15,15,15,7,8,8,11,12,12,12,12,6,6,4,5,5,5,7,5,6,5,5,6,6,6,5,7,5,6,5,6,5,4,6,6,5,6,5,5,1.407,125.833,127.63,90,2,4,2,2,2,3,2,4,4,1,3,4,3,2,3,1,4,3,16,16,16,5,5,5,6,3,3,3,3,5,5,6,4,4,5,27,2,5,5,3,2,3,3,.902,109.028,109.278,102,3,11,22,22,5,5,3,4,4,5,4,5,5,5,4,1,3,4,38,40,37,39,39,39,14,14,3,4,3,3,4,4,5,4,4,4,1,2,2, ,3,Italy, ,1,25,4, , , , ,1, , , , ,1, ,1, , ,6,100,1,1,1,0,0,0, , , , , , , , , , , , , , , , , , , , , , , , , , , , , , , , , , , , , , , , , , , , , , , , , ,24,1,7, ,4, , , , , , , , , , , , , , , , , , , , , , , , , , , , , , , , , , , , , , , , , , , , , , , , , , , , , , ,1,1,1,1,1,1,4,4.338,18.812,19.65,9,1,18,17,17,18,17,40,44,62,-68, , , , , , , , , , , , , , , ,3.793,172.673,173.018,65,14,15,14,16,15,14,15,14,6,7,7,6,2.214,14.212,15.919,27,3,3,3,3,3,4,2,2,3,3,2,3,2,3,3,1,2,3,3,4,3,6,3,3,3,4,5,4,5,3,2,3,3,2.223,190.526,193.318,52,23,22,5,9,9,5,9,9,5,39,39,38,3,human people are needed for both types of person.,38,38,39,4,3,3,6,4,1,2,0,i dont feel at all productive.
4/26/2020 7:43:06,4/26/2020 8:01:53,0,100,1127,1,4/26/2020 8:01:54, ,1,1,1,1,1,1,4,7.416,106.11,107.663,24, ,18,19,19,19,19,29,30,90,75, , , , , , , , , , , , , , , ,2.478,226.167,227.154,53,13,12,12,13,12,12,12,13,8,8,8,14,13,14,15,14,8,8,4,4,7,5,7,5,6,6,4,7,6,7,8,5,7,7,8,7,6,4,5,7,5,4,4,7,2.996,296.464,297.581,82,4,1,5,2,5,2,4,1,3,2,4,4,5,3,4,2,4,1,15,14,12,4,5,5,4,3,4,3,2,4,2,4,2,4,2,26,4,5,6,1,3,4,3,4.011,198.662,199.725,68,13,13,21,23,10,0,3,7,5,5,4,5,4,4,5,9,3,4,37,39,37,40,40,40,16,16,5,4,2,6,6,5,5,5,6,5,5,4,1, ,3,Austria, ,3,25,4, , , , ,1, , , , ,2, ,1, , ,6,50,1,1,1,12,8,4, , , , , , , , , , , , , , , , , , , , , , , , , , , , , , , , , , , , , , , , , , , , , , , , , ,24,2,3,Mexico,4, , , , , , , , , , , , , , , , , , , , , , , , , , , , , , , , , , , , , , , , , , , , , , , , , , , , , , ,1,1,1,1,1,1,4,5.627,33.636,36.533,26,1,19,19,19,19,18,35,40,85,82, , , , , , , , , , , , , , , ,32.053,167.07,168.752,54,12,13,12,13,13,12,12,13,4,5,5,5,131.097,182.483,183.571,20,3,1,4,2,4,1,3,1,2,2,3,2,4,2,3,1,4,2,4,4,4,4,2,4,2,2,4,3,5,1,4,4,3,2.357,223.666,225.152,55,20,23,4,4,4,4,1,1,1,37,38,37,4,"I think extroverts are having a more difficult time because they are used to have contact with people and be more social, however, this pandemic makes you stay at home having no contact.",41,41,40,5,4,5,5,5,3,1,30, 
4/26/2020 11:28:53,4/26/2020 11:41:54,0,100,780,1,4/26/2020 11:41:54, ,1,1,1,1,1,1,4,10.322,22.465,23.492,7, ,20,20,20,19,20,37,38,80,-16, , , , , , , , , , , , , , , ,5.805,128.692,130.497,29,11,11,12,15,12,12,11,13,6,8,8,12,12,11,11,11,7,6,4,5,7,4,5,4,4,4,5,7,5,5,7,4,7,8,7,8,4,4,4,8,5,4,4,7,3.821,175.944,176.592,49,4,3,4,1,4,1,5,1,4,1,4,1,5,1,4,1,5,1,17,17,12,6,6,5,2,2,4,4,2,6,6,6,2,4,2,27,1,5,3,1,4,4,1,6.835,160.805,161.997,46,3,11,21,23,4,0,0,8,9,4,1,4,1,1,5,1,4,4,37,40,37,40,40,40,17,16,5,5,2,5,5,6,7,6,7,5,5,4,2, ,1, , ,1,32,4,1,1,1,1,1,1,1,1,0,1, ,1, , ,6,9,1,1,1,0,0,0, , , , , , , , , , , , , , , , , , , , , , , , , , , , , , , , , , , , , , , , , , , , , , , , , ,31,1,9, ,4, , , , , , , , , , , , , , , , , , , , , , , , , , , , , , , , , , , , , , , , , , , , , , , , , , , , , , ,1,1,1,1,1,1,4,.601,16.3,17.469,15,1,20,20,20,20,19,38,38,90,40, , , , , , , , , , , , , , , ,2.819,101.2,102.146,47,15,12,13,15,12,15,15,13,5,6,5,4,4.949,77.191,78.133,36,5,1,2,1,5,3,5,2,5,1,5,1,5,1,5,2,5,1,6,6,6,5,2,4,4,3,7,7,7,1,5,5,1,12.57,389.574,390.667,109,21,22,1,1,1,4,1,4,1,37,38,37,4,Extroverts like having more people around them.,40,40,40,6,5,6,2,2,1,3,0, 
4/26/2020 7:43:49,4/26/2020 7:53:35,0,100,586,1,4/26/2020 7:53:36, ,1,1,1,1,1,1,4,45.592,51.53,59.483,7, ,20,20,21,20,19,44,44,100,20, , , , , , , , , , , , , , , ,3.192,128.357,130.673,29,12,11,12,12,11,12,11,11,8,8,8,11,13,11,12,11,6,7,4,4,6,4,7,4,5,6,4,7,4,7,6,4,7,6,5,8,5,4,6,7,4,4,4,5,16.984,97.769,99.092,48,4,2,3,1,4,2,4,2,4,1,5,1,4,2,4,2,5,2,17,17,17,5,5,6,6,1,5,5,1,6,6,6,4,2,1,28,2,4,6,1,4,4,1,3.814,96.456,97.979,47,13,14,20,24,0,2,3,8,8,1,1,1,1,1,1,1,2,2,37,38,37,41,41,41,17,12,4,4,4,3,3,2,6,6,7,5,6,4,2, ,2, ,4,1,52,4, , , , ,1, , , , ,1, ,1, , ,9,50,1,1,1,2,0,0,No, , , , , , , , , , , , , , , , , , , , , , , , , , , , , , , , , , , , , , , , , , , , , , , , ,51,1,10, ,5, , , , , , , , , , , , , , , , , , , , , , , , , , , , , , , , , , , , , , , , , , , , , , , , , , , , , , ,1,1,1,1,1,1,4,42.817,48.939,52.825,7,1,21,21,20,20,20,45,45,100,100, , , , , , , , , , , , , , , ,2.192,60.98,62.869,28,11,11,11,11,11,11,11,11,4,4,4,4,2.559,14.412,15.505,12,4,1,4,2,3,1,4,1,4,1,4,2,4,1,4,1,5,1,5,5,5,6,1,5,4,1,7,7,7,1,5,4,1,2.401,55.999,57.349,37,20,23,1,1,1,1,1,1,1,37,39,37,4,"I think introverts are loving this, extraverts are probably going crazy",41,41,41,6,6,6,5,5,1,3,0,"Feeling pretty well.  Our state is starting to open things up again, so I am encouraged."
4/26/2020 8:13:40,4/26/2020 8:39:24,0,100,1544,1,4/26/2020 8:39:25, ,1,1,1,1,1,1,4,9.943,35.273,37.301,7, ,16,17,16,19,21,40,40,100,0, , , , , , , , , , , , , , , ,15.901,404.469,405.573,44,13,12,15,12,12,13,12,13,8,8,8,15,15,14,14,12,6,7,4,4,4,4,7,4,4,4,4,7,4,7,4,4,7,4,4,7,4,4,5,6,6,4,4,4,14.306,275.042,276.558,46,1,2,2,1,1,1,4,1,3,1,4,2,4,2,4,2,3,2,17,17,15,3,4,5,5,2,4,4,2,7,7,7,3,3,3,27,2,2,5,1,3,4,2,14.09,301.595,302.329,56,13,13,20,24,3,0,4,8,8,4,1,4,1,1,1,1,3,2,39,40,37,38,38,39,14,14,2,3,3,5,5,5,6,6,6,4,4,1,2, ,3,Poland, ,1,34,4,1,1,1,1,1,0,0,0,0,2, ,1, , ,5,40,1,1,1,0,0,0,No, , , , , , , , , , , , , , , , , , , , , , , , , , , , , , , , , , , , , , , , , , , , , , , , ,34,1,3,Poland,4, , , , , , , , , , , , , , , , , , , , , , , , , , , , , , , , , , , , , , , , , , , , , , , , , , , , , , ,1,1,1,1,1,1,4,12.523,29.382,30.928,7,1,15,17,16,19,16,40,40,90,0, , , , , , , , , , , , , , , ,8.812,210.67,213.841,31,13,13,15,15,13,13,12,15,5,6,5,6,11.991,87.948,88.886,14,1,4,2,1,1,1,4,1,3,1,4,1,3,2,4,2,3,2,3,3,4,5,2,4,3,2,7,7,7,1,3,3,2,14.033,226.919,227.67,38,20,24,1,1,1,1,1,1,1,39,39,37,4,Extroverts like to be around people most of the time.,39,38,40,4,4,2,5,5,1,3,30,"Generally, I feel pretty good."
4/26/2020 7:55:40,4/26/2020 8:15:09,0,100,1169,1,4/26/2020 8:15:10, ,1,1,1,1,1,1,4,9.968,19.886,35.073,7, ,15,20,15,16,18,8,24,50,-60, , , , , , , , , , , , , , , ,20.31,210.819,212.687,37,11,15,12,15,14,11,17,15,2,7,5,12,12,14,17,16,6,5,6,6,7,7,6,6,6,8,5,7,6,5,6,7,6,5,5,6,7,7,8,8,6,5,4,5,13.493,181.631,183.54,52,1,5,1,5,1,5,2,4,1,1,2,3,5,5,1,1,1,1,11,11,14,5,2,5,1,4,2,2,4,1,2,1,3,2,1,24,1,1,1,1,3,4,2,14.403,308.922,310.009,52,3,3,20,24,.5,1,0,9,10,5,4,1,1,1,1,1,3,1,40,40,40,41,38,41,14,15,5,1,3,6,3,4,1,1,1,3,1,2,2, ,3,Portugal, ,1,20,4,1,1,1,1,1,0,0,0,0,1, ,1, , ,8,30,1,1,1,0,0,0, , , , , , , , , , , , , , , , , , , , , , , , , , , , , , , , , , , , , , , , , , , , , , , , , ,19,1,3,Portugal,3, , , , , , , , , , , , , , , , , , , , , , , , , , , , , , , , , , , , , , , , , , , , , , , , , , , , , , ,1,1,1,1,1,1,4,11.836,21.963,22.835,17,1,20,18,17,17,19,53,41,36,13, , , , , , , , , , , , , , , ,2.201,67.697,68.509,34,13,14,12,17,15,15,14,15,8,4,5,7,1.596,21.111,22.628,21,3,4,2,5,5,4,2,3,1,3,2,5,4,2,3,4,2,1,1,6,5,2,3,2,5,3,4,6,4,2,3,4,3,1.388,58.009,58.819,74,22,23,1,1,9,4,9,4,10,39,38,40,4,Cause they can't socialize physically with other people,40,38,39,1,6,5,3,3,2,1,46, 
4/26/2020 7:45:34,4/26/2020 8:01:08,0,100,934,1,4/26/2020 8:01:08, ,1,1,1,1,1,1,4,1.206,63.92,64.912,8, ,15,18,16,15,15,16,34,6,0, , , , , , , , , , , , , , , ,9.285,140.67,141.078,32,12,12,15,14,14,12,13,11,8,8,8,16,13,16,11,11,6,7,4,4,5,4,8,4,5,6,4,7,7,8,6,5,7,8,7,7,5,8,6,8,8,6,7,4,5.821,203.061,203.701,52,5,1,4,1,5,1,3,2,3,1,3,4,4,2,5,4,4,1,16,16,11,4,4,2,5,5,3,3,5,2,4,4,5,5,3,28,3,6,6,1,3,5,1,5.426,198.212,198.996,47,2,11,23,21,2,0,0,5,7,9,5,9,9,4,4,9,5,5,38,38,39,39,38,38,15,16,3,4,4,4,5,6,5,5,6,6,6,1,1, ,3,spain, ,1,27,4,1,1,1,1,1,0,0,1,0,2, ,1, , ,4,10,1,1,1,0,0,0,any, , , , , , , , , , , , , , , , , , , , , , , , , , , , , , , , , , , , , , , , , , , , , , , , ,26,2,8, ,4, , , , , , , , , , , , , , , , , , , , , , , , , , , , , , , , , , , , , , , , , , , , , , , , , , , , , , ,1,1,1,1,1,1,4,.949,30.833,40.058,9,1,16,18,18,16,16,22,32,72,40, , , , , , , , , , , , , , , ,6.579,159.828,162.076,44,13,12,14,12,12,13,12,11,5,7,4,5,9.467,73.154,73.874,12,5,1,5,1,5,1,2,4,2,3,2,5,3,3,4,3,3,1,4,4,4,3,5,3,3,5,2,2,2,1,2,4,1,12.314,154.264,155.049,38,21,22,9,9,9,9,9,5,9,37,37,37,1,because they are those people who do not feel desperate to start a conversation with someone or do not feel despair or anxiety to remain alone or isolated,39,39,39,6,6,3,5,5,1,1,0,Waiting for an important government procedure and not being able to carry it out because the offices are closed due to the coronavirus
4/26/2020 10:08:22,4/26/2020 10:27:15,0,100,1132,1,4/26/2020 10:27:15, ,1,1,1,1,1,1,4,1.394,41.767,43.249,28, ,17,17,18,17,19,40,40,77,68, , , , , , , , , , , , , , , ,4.754,198.536,201.181,104,12,12,12,13,13,12,11,12,8,8,7,15,15,14,12,12,6,7,4,4,7,5,7,5,5,6,4,6,4,7,7,4,6,4,6,6,6,7,6,7,6,4,7,4,5.642,223.932,224.922,97,3,2,4,2,4,3,3,3,2,1,3,2,3,3,2,2,3,2,13,15,12,4,4,4,5,3,3,3,3,2,1,2,3,3,2,26,2,2,5,2,3,4,2,4.716,282.956,284.048,92,3,13,20,23,0,0,0,8,8,4,4,4,4,1,1,4,4,4,39,39,37,40,40,39,15,12,4,2,2,4,4,4,5,5,5,4,5,3,2, ,2, ,45,2,30,4, , , , ,1, , , , ,1, ,1, , ,8,30,1, , ,2, , , , , , , , , , , , , , , , , , , , , , , , , , , , , , , , , , , , , , , , , , , , , , , , , , , ,29,1,3, ,4, , , , , , , , , , , , , , , , , , , , , , , , , , , , , , , , , , , , , , , , , , , , , , , , , , , , , , ,1,1,1,1,1,1,4,17.869,26.545,27.44,7,1,17,17,17,18,17,48,40,81,42, , , , , , , , , , , , , , , ,1.898,84.379,86.493,28,12,13,12,12,12,12,12,12,4,4,4,4,5.542,39.118,40.411,12,3,2,2,2,3,2,2,3,2,2,3,2,3,3,3,2,3,2,4,4,4,5,3,3,3,3,3,1,2,2,2,3,3,6.362,96.62,97.998,37,21,22,4,4,4,5,5,1,4,38,38,37,4,I believe extroverts who want to visit outside and make new connections would be impacted by this pandemic,38,39,40,4,4,4,5,5,3,1,10, 
4/26/2020 9:36:02,4/26/2020 10:29:23,0,100,3201,1,4/26/2020 10:29:24, ,1,1,1,1,1,1,4,9.091,20.597,29.721,7, ,15,15,16,16,19,24,24,100,-20, , , , , , , , , , , , , , , ,312.892,459.142,470.301,27,11,13,15,15,15,13,13,11,5,8,8,12,12,12,11,11,6,4,4,4,4,4,4,4,4,4,4,4,4,4,4,4,4,4,4,8,4,4,4,8,4,4,4,4,6.073,264.118,265.486,49,1,1,2,2,2,1,2,1,1,1,3,1,4,2,5,1,2,1,16,17,12,5,5,5,5,4,4,2,2,6,1,4,3,1,1,28,1,5,1,2,1,2,4,19.013,2086.835,2088.251,59,3,3,21,22,0,0,0,5,7,5,1,1,5,1,1,1,3,1,39,37,39,37,37,37,15,15,3,3,2,7,5,5,3,2,3,4,4,5,2, ,2, ,15,1,43,4,1,1,1, ,1,0,1,2, ,3, , ,1, ,9,100,1,1,1,0,0,0,No comments, , , , , , , , , , , , , , , , , , , , , , , , , , , , , , , , , , , , , , , , , , , , , , , , ,43,1,10, ,2, , , , , , , , , , , , , , , , , , , , , , , , , , , , , , , , , , , , , , , , , , , , , , , , , , , , , , , , , , , , , , , , , , , , , , , , , , , , , , , , , , , , , , , , , , , , , , , , , , , , , , , , , , , , , , , , , , , , , , , , , , , , , , , , , , , , , , , , , , , , , , , , , , , , , , , , , , , , , , , , , , , , , , , , , , , , , 
4/26/2020 11:26:59,4/26/2020 11:45:43,0,100,1124,1,4/26/2020 11:45:44, ,1,1,1,1,1,1,4,3.869,18.592,19.741,14, ,16,19,17,17,19,56,40,80,-30, , , , , , , , , , , , , , , ,4.147,255.648,257.699,77,12,11,13,13,12,12,12,12,8,8,6,17,16,15,16,13,7,7,4,4,7,5,7,4,5,4,4,7,4,7,7,5,7,7,5,7,5,4,5,7,6,5,4,7,6.825,250.588,252.256,115,4,1,4,3,4,4,4,1,4,1,4,2,3,4,3,3,3,2,17,17,17,4,5,5,4,2,4,3,2,2,2,7,4,4,2,28,1,7,5,2,2,3,4,4.561,260.158,261.689,95,13,12,23,21,5,0,0,7,5,4,4,4,4,4,9,4,3,4,37,39,37,38,38,40,16,16,4,3,2,5,5,5,5,6,6,4,5,2,2, ,3,Portugal, ,1,36,4,1,1,1,1,1,0,0,1,0,1, ,1, , ,5,100,1,1,1,0,0,0, , , , , , , , , , , , , , , , , , , , , , , , , , , , , , , , , , , , , , , , , , , , , , , , , ,35,1,3,Portugal,5, , , , , , , , , , , , , , , , , , , , , , , , , , , , , , , , , , , , , , , , , , , , , , , , , , , , , , ,1,1,1,1,1,1,4,12.528,17.513,21.265,8,2,19,20,20,20,20,45,40,85,5, , , , , , , , , , , , , , , ,9.241,255.161,256.189,25,12,12,11,14,13,12,13,12,4,4,4,4,12.393,49.436,50.856,15,4,1,4,1,3,1,4,1,3,1,4,2,4,1,4,4,3,1,5,5,5,5,4,4,3,2,6,2,6,2,3,2,4,7.143,312.143,313.051,43,22,21,1,1,1,1,1,1,1,37,39,37,4,"introverts usually have more difficulty communicating with others and confinement worsens the situation, because they will not try to talk to others through videoconferences",38,38,38,4,4,4,7,6,1,1,90, 
4/27/2020 14:46:54,4/27/2020 15:04:20,0,100,1045,1,4/27/2020 15:04:20, ,1,1,1,1,1,1,4,5.078,10.732,13.506,7, ,17,18,18,18,18,40,40,80,-15, , , , , , , , , , , , , , , ,9.662,103.788,104.822,28,14,14,14,15,15,13,15,13,6,6,6,12,12,11,12,11,6,5,4,4,4,7,5,5,7,4,4,6,6,6,4,7,5,5,6,7,7,4,4,7,5,6,4,5,22.259,257.832,258.242,51,3,1,2,3,1,2,3,2,2,3,2,2,2,2,2,3,2,3,14,15,13,4,4,4,4,2,3,2,2,5,3,2,2,4,3,26,3,5,3,3,3,2,4,11.964,352.01,352.65,46,11,11,21,23,1,0,0,5,5,4,1,4,1,4,9,5,3,3,37,38,38,38,38,38,13,12,3,3,4,5,4,4,3,3,3,3,3,2,2, ,2, ,23,1,42,4, , ,1,1,1, , ,1,1,2, ,1, , ,7,5,1,1,1,0,0,0,no, , , , , , , , , , , , , , , , , , , , , , , , , , , , , , , , , , , , , , , , , , , , , , , , ,41,1,10, ,4, , , , , , , , , , , , , , , , , , , , , , , , , , , , , , , , , , , , , , , , , , , , , , , , , , , , , , ,1,1,1,1,1,1,4,4.196,9.84,13.257,7,2,18,18,19,17,18,40,40,60,-8, , , , , , , , , , , , , , , ,2.7,98.841,100.819,23,14,14,14,15,14,15,15,14,4,6,4,6,4.664,50.087,51.269,14,3,2,3,2,1,2,2,3,2,4,2,3,3,3,2,2,2,3,3,3,3,4,3,3,3,3,5,2,2,3,2,2,4,6.015,106.959,107.591,37,22,21,4,1,5,4,4,9,5,37,37,38,4,Extroverts require people.  Introverts do not.,38,38,38,3,3,3,5,5,1,3,21,no
4/26/2020 11:59:47,4/26/2020 12:27:49,0,100,1681,1,4/26/2020 12:27:49, ,1,1,1,1,1,1,4,5.871,12.354,13.47,11, ,18,18,19,19,19,40,40,100,0, , , , , , , , , , , , , , , ,2.424,465.873,466.66,45,12,12,13,14,12,13,12,13,7,8,8,14,14,14,12,12,6,7,5,4,6,5,6,5,6,6,4,6,4,7,6,4,7,6,6,7,5,4,5,7,6,5,4,7,4.604,220.956,221.421,75,4,2,4,1,3,2,4,2,4,1,4,1,4,3,3,2,4,2,16,16,17,5,5,5,5,4,4,4,2,6,6,5,4,2,2,27,3,4,5,3,2,3,3,237.161,421.242,422.744,59,11,12,20,23,0,0,8,7,5,1,1,4,4,1,1,1,4,4,37,38,37,38,38,39,15,16,4,2,3,2,4,3,4,4,4,4,4,4,2, ,2, ,21,1,37,4, , , , ,1, , , , ,2, ,1, , ,9,20,1, , ,2, , , , , , , , , , , , , , , , , , , , , , , , , , , , , , , , , , , , , , , , , , , , , , , , , , , ,36,1,10, ,4, , , , , , , , , , , , , , , , , , , , , , , , , , , , , , , , , , , , , , , , , , , , , , , , , , , , , , ,1,1,1,1,1,1,4,3.447,9.353,11.772,10,1,19,19,19,20,19,40,40,95,20, , , , , , , , , , , , , , , ,1390.939,1497.025,1498.017,48,12,12,13,11,13,12,12,11,4,4,4,4,2.601,39.461,42.392,16,2,1,4,2,3,2,4,2,4,2,4,1,4,3,3,2,3,2,5,5,5,6,2,4,3,2,6,6,6,3,2,3,3,2.081,92.98,93.577,46,20,23,1,1,1,4,1,4,1,37,37,37,4,"by definition, extroverts are more social and have a need for interaction unlike introverts",39,39,40,5,4,5,5,5,1,3,0, 
4/26/2020 7:46:08,4/26/2020 8:03:22,0,100,1033,1,4/26/2020 8:03:23, ,1,1,1,1,1,1,4,29.563,46.202,51.099,7, ,18,18,20,16,20,40,40,80,0, , , , , , , , , , , , , , , ,5.277,136.73,139.293,37,14,11,13,12,12,13,14,11,5,8,8,12,12,11,16,11,7,7,4,4,7,5,7,5,4,6,4,4,4,8,7,5,8,8,7,8,6,4,6,8,5,5,4,7,5.849,239.593,240.354,55,4,1,3,2,2,2,4,2,4,4,4,3,5,5,3,1,5,2,17,17,16,4,5,4,7,2,4,3,2,7,5,4,5,4,5,27,1,5,5,3,1,1,2,52.62,311.485,312.162,64,12,13,22,21,2,0,0,7,8,1,1,1,4,1,5,1,1,2,37,37,37,38,39,41,17,15,1,1,1,4,5,6,7,7,7,4,3,6,2, ,3,Latvia, ,1,22,4,1,1,1,1,1,0,0,0,1,3, ,1, , ,5,100,1,1,1,0,0,0, , , , , , , , , , , , , , , , , , , , , , , , , , , , , , , , , , , , , , , , , , , , , , , , , ,21,1,3,Latvia,4, , , , , , , , , , , , , , , , , , , , , , , , , , , , , , , , , , , , , , , , , , , , , , , , , , , , , , ,1,1,1,1,1,1,4,4.898,12.016,19.682,8,1,19,19,18,19,18,40,40,70,-15, , , , , , , , , , , , , , , ,2.176,157.096,158.378,22,14,12,13,15,12,13,15,13,5,8,5,5,5.526,79.059,80.436,17,4,1,3,2,2,1,4,4,4,2,4,1,5,2,4,2,4,3,4,4,5,7,3,4,4,2,7,5,6,2,1,1,3,2.165,260.188,260.9,41,22,21,1,4,1,1,1,4,1,38,37,37,4,I'm introvert and i am more than happy with staying at home for a long time,40,39,39,4,5,6,5,5,1,1,0, 
4/26/2020 10:50:30,4/26/2020 11:00:13,0,100,582,1,4/26/2020 11:00:13, ,1,1,1,1,1,1,4,5.683,14.531,16.45,8, ,18,18,19,20,18,40,40,90,80, , , , , , , , , , , , , , , ,4.307,101.868,103.336,31,11,11,13,11,11,11,12,11,8,8,8,11,11,11,11,11,7,7,4,4,5,4,6,4,5,5,4,5,4,6,5,4,5,4,6,7,5,4,5,6,7,4,4,4,4.298,111.581,112.29,52,2,2,3,1,2,1,3,2,4,1,3,1,4,2,4,1,4,1,16,17,16,5,5,5,7,4,4,4,3,6,6,6,3,4,1,28,1,1,5,1,2,4,2,3.833,137.337,137.985,61,11,11,21,23,10,5,0,5,10,5,4,4,1,1,1,4,4,3,38,38,37,38,39,38,14,15,1,1,1,1,6,6,5,5,5,5,5,5,2, ,1, , ,1,32,3, , , , , , , , , , , ,1, , ,6,25,1,1,1,2,0,0,best of luck!, , , , , , , , , , , , , , , , , , , , , , , , , , , , , , , , , , , , , , , , , , , , , , , , ,32,1,9, ,5, , , , , , , , , , , , , , , , , , , , , , , , , , , , , , , , , , , , , , , , , , , , , , , , , , , , , , ,1,1,1,1,1,1,4,12.795,25.548,135.823,14,1,17,18,20,19,18,45,40,90,-10, , , , , , , , , , , , , , , ,3.456,183.477,186.032,31,12,11,13,13,11,11,12,11,4,4,4,4,4.107,80.972,81.88,22,4,1,4,1,4,1,4,2,2,1,4,1,5,1,4,1,4,1,5,5,5,5,1,4,4,1,3,5,5,1,1,4,2,21.141,132.184,133.344,39,21,23,1,1,4,1,1,1,4,38,37,37,4,"I think since extroverts generally like to be out and about most of the time, it must be more difficult for them to cope with the current situation.",40,40,40,5,5,4,7,3,1,1,40,"I feel okay, there are no major frustrations other than the minor things like lack of outdoor activities, etc."
4/27/2020 1:18:14,4/27/2020 1:24:02,0,100,348,1,4/27/2020 1:24:03, ,1,1,1,1,1,1,4,3.68,9.111,10.633,8, ,17,17,20,17,19,40,40,80,60, , , , , , , , , , , , , , , ,2.213,69.265,69.91,36,14,13,13,14,12,12,11,14,8,7,7,16,15,11,12,11,6,6,6,6,6,4,5,5,7,5,5,7,6,6,5,7,7,4,5,6,5,5,5,8,8,6,4,4,2.699,67.63,69.585,50,4,4,3,3,2,4,3,2,2,4,3,3,3,2,3,3,3,2,17,17,17,5,5,4,4,3,3,4,4,4,7,5,3,5,2,28,1,5,7,1,3,5,3,1.51,59.366,59.949,50,12,12,21,21,3,3,6,7,7,4,5,4, ,5,5,9,4,2,39,40,37,39,38,40,15,13,6,5,7,5,7,4,1,5,3,5,3,4,2, ,1, , ,1,33,4, , , , ,1, , , , ,1, ,1, , ,6,95,1,1,1,0,0,0, , , , , , , , , , , , , , , , , , , , , , , , , , , , , , , , , , , , , , , , , , , , , , , , , ,32,1,9, ,4, , , , , , , , , , , , , , , , , , , , , , , , , , , , , , , , , , , , , , , , , , , , , , , , , , , , , , ,1,1,1,1,1,1,4,6.169,12.011,14.07,8,1,19,18,18,18,18,40,35,75,19, , , , , , , , , , , , , , , ,1.257,44.468,46.729,33,15,15,15,13,16,15,15,13,5,6,7,7,.605,6.021,7.317,12,4,3,4,3,3,4,4,3,3,2,2,2,3,3,4,3,3,2,4,4,2,5,4,2,3,3,3,5,5,2,4,3,3,1.122,23.902,25.162,37,23,22,9,5,9,5,5,5,4,40,40,39,4,In general I find them tougher to work with and understand,40,40,38,4,3,4,5,3,1,3,0, 
4/26/2020 9:07:54,4/26/2020 9:22:58,0,100,903,1,4/26/2020 9:22:58, ,1,1,1,1,1,1,4,11.008,17.862,19.683,7, ,17,18,18,18,16,30,48,80,-20, , , , , , , , , , , , , , , ,8.824,189.965,193.357,34,14,15,15,13,15,14,12,14,8,8,7,16,15,14,12,14,6,7,5,4,5,6,6,5,7,5,4,7,4,7,5,6,5,5,7,6,5,6,5,7,5,5,7,6,4.146,176.736,177.9,50,4,3,4,2,3,2,4,2,3,2,4,2,2,4,3,4,2,3,16,16,11,2,4,3,3,2,4,3,1,5,2,3,2,4,2,27,1,2,1,2,2,4,2,36.017,221.183,222.152,48,2,2,21,23,2,0,0,7,6,9,5,9,9,5,9,5,5,5,40,39,38,39,40,40,15,12,4,6,6,6,6,5,4,4,4,3,3,2,2, ,3,Greece, ,1,44,4,1,1,1,1,1,0,0,1,0,1, ,1, , ,5,10,1,1, ,6,2, , , , , , , , , , , , , , , , , , , , , , , , , , , , , , , , , , , , , , , , , , , , , , , , , , ,43,1,3,Greece,6, , , , , , , , , , , , , , , , , , , , , , , , , , , , , , , , , , , , , , , , , , , , , , , , , , , , , , ,1,1,1,1,1,1,4,4.191,10.325,11.713,7,1,20,16,17,18,17,35,48,75,-10, , , , , , , , , , , , , , , ,3.257,126.969,129.236,18,13,15,16,14,15,15,12,12,6,7,7,5,3.99,70.53,71.17,15,4,4,3,4,2,4,4,3,2,2,4,4,2,4,1,4,2,2,2,3,2,4,3,3,3,3,3,4,5,2,3,4,2,5.471,133.211,134.406,42,22,22,9,9,9,9,9,10,9,40,39,39,3,"Both of them for different reasons. Extroverts miss the human contact, introverts find it even harder to mark their presence online (e.g in meetings)",38,38,39,3,3,2,5,8,1,1,70,"lack of meaningful contact, long hours as there is no sense of normal working hours. People take it for granted that you'll be always available since you're at home"
4/26/2020 7:58:02,4/26/2020 8:18:12,0,100,1210,1,4/26/2020 8:18:13, ,1,1,1,1,1,1,4,248.114,326.08,327,9, ,16,17,18,17,18,40,40,70,-25, , , , , , , , , , , , , , , ,7.033,147.364,153.681,34,14,12,12,14,12,13,13,13,8,6,6,11,11,11,11,11,5,7,4,5,5,5,6,4,6,5,5,7,4,7,7,4,7,8,6,8,5,4,5,8,6,4,4,7,8.249,183.663,183.899,58,2,3,2,2,2,4,5,3,1,3,3,2,2,2,5,2,4,3,16,17,12,4,3,4,5,4,5,3,2,7,6,7,2,2,1,27,1,1,5,1,2,5,2,5.234,215.648,215.939,81,2,3,23,21,8,0,0,9,10,4,1,4,1,1,9,1,3,2,39,40,37,41,38,40,13,12,6,4,5,5,7,4,6,6,7,4,5,3,2, ,3,Greece, ,1,24,4, , , ,1,1, , , ,1,2, ,1, , ,5,5,1,1,1,0,0,0, , , , , , , , , , , , , , , , , , , , , , , , , , , , , , , , , , , , , , , , , , , , , , , , , ,23,1,3,Greece,3, , , , , , , , , , , , , , , , , , , , , , , , , , , , , , , , , , , , , , , , , , , , , , , , , , , , , , ,1,1,1,1,1,1,4,33.57,42.466,44.345,10,1,18,18,20,18,17,40,40,90,0, , , , , , , , , , , , , , , ,4.506,173.118,174.308,34,13,14,12,16,12,13,12,14,4,4,4,4,4.86,69.485,73.142,20,4,1,5,1,4,2,3,1,2,1,3,1,4,2,4,1,4,1,4,4,4,3,2,5,4,1,7,6,7,1,2,5,2,54.57,208.228,208.86,72,23,23,5,4,1,4,1,5,4,37,39,37,4,Introverts are used to staying at home and have less contact with others,40,40,40,6,6,6,5,5,1,1,0, 
4/26/2020 8:00:52,4/26/2020 8:13:41,0,100,769,1,4/26/2020 8:13:42, ,1,1,1,1,1,1,4,.885,32.812,33.382,21, ,18,17,17,17,17,45,40,30,-62, , , , , , , , , , , , , , , ,.589,100.754,101.284,45,15,12,15,13,15,13,13,13,8,8,8,13,12,12,12,12,7,7,4,4,7,5,6,5,6,7,4,7,7,6,6,5,6,4,5,7,7,4,7,7,7,7,5,4,2.343,159.531,161.616,117,3,2,3,3,3,1,2,4,2,4,2,3,3,4,2,3,4,2,16,16,12,4,4,4,5,2,3,2,4,5,3,5,3,3,4,24,1,1,4,2,3,3,4,.716,171.218,171.816,122,2,2,21,22,3,0,0,8,8,9,9,9,9,9,9,9,4,4,38,38,39,40,40,40,15,12,6,5,5,5,6,6,4,4,5,6,6,5,1, ,1, , ,1,29,3, , , , , , , , , , , ,1, , ,6,31,1,1,1,0,0,0, , , , , , , , , , , , , , , , , , , , , , , , , , , , , , , , , , , , , , , , , , , , , , , , , ,28,2,9, ,4, , , , , , , , , , , , , , , , , , , , , , , , , , , , , , , , , , , , , , , , , , , , , , , , , , , , , , ,1,1,1,1,1,1,4,.755,31.97,33.691,17,1,19,17,19,18,18,48,40,60,-38, , , , , , , , , , , , , , , ,1.788,173.463,174.914,96,15,14,13,15,15,15,15,12,6,7,6,7,1.198,40.201,41.522,21,4,4,4,4,4,3,4,4,4,5,3,4,3,5,4,3,3,3,5,4,4,5,4,3,3,4,3,4,3,2,3,3,3,1.37,120.411,121.848,97,20,21,5,5,5,4,5,5,5,38,38,39,4,"they get energy from being around people since you can't be in the office , I feel like extroverts may suffer more",40,40,40,5,4,5,5,5,1,3,2, 
4/26/2020 8:43:49,4/26/2020 8:59:04,0,100,914,1,4/26/2020 8:59:04, ,1,1,1,1,1,1,4,24.305,29.049,30.681,7, ,21,21,21,21,21,40,40,21,0, , , , , , , , , , , , , , , ,42.33,145.655,147.123,28,11,11,11,11,11,11,11,11,8,8,8,17,14,14,11,11,8,6,4,4,6,4,8,4,4,4,4,8,4,4,7,4,8,4,4,8,7,4,4,8,4,4,4,4,21.822,201.71,202.254,48,5,1,5,1,5,1,5,1,5,1,5,1,5,1,5,1,5,1,17,17,17,6,6,6,5,1,5,5,1,6,6,6,4,1,1,28,1,7,7,1,1,4,1,15.476,101.409,102.018,43,13,13,20,23,7,7,6,8,8,1,1,1,1,1,1,1,4,4,37,39,37,41,41,41,17,17,1,1,1,1,1,1,7,7,7,6,6,6,1, ,2, ,10,3,38,4,1,1,1,1,1,0,0,0,2,1, ,1, , ,9,100,1,1,1,0,0,0, , , , , , , , , , , , , , , , , , , , , , , , , , , , , , , , , , , , , , , , , , , , , , , , , ,37,2,10, ,4, , , , , , , , , , , , , , , , , , , , , , , , , , , , , , , , , , , , , , , , , , , , , , , , , , , , , , ,1,1,1,1,1,1,4,6.871,10.471,11.164,7,1,19,20,20,21,19,40,40,19,0, , , , , , , , , , , , , , , ,2.652,80.679,81.98,28,11,11,11,11,11,11,11,11,4,4,4,4,2.156,38.398,39.466,12,5,1,5,1,4,1,5,1,4,1,5,1,5,1,5,1,5,1,6,6,6,6,1,5,5,1,6,6,6,1,3,4,1,17.95,76.205,76.811,35,21,23,1,1,1,1,1,1,1,37,37,37,3,It affects different people in different ways.,41,41,41,6,6,6,5,5,1,1,0,feeling okay
4/26/2020 7:47:23,4/26/2020 8:08:22,0,100,1258,1,4/26/2020 8:08:22, ,1,1,1,1,1,1,4,68.21,107.861,110.264,8, ,19,20,20,20,17,46,40,85,-20, , , , , , , , , , , , , , , ,11.424,233.437,235.409,38,13,12,13,13,13,12,11,12,8,8,8,12,11,11,11,11,7,7,4,4,4,4,5,4,4,4,4,7,4,5,4,4,8,7,6,7,4,4,4,8,6,4,4,7,11.892,259.93,261.187,46,1,2,3,1,1,1,3,1,1,1,3,1,4,1,3,1,4,1,16,17,14,5,5,5,6,2,4,3,1,7,6,6,4,4,2,26,1,2,2,1,3,3,2,10.21,246.82,247.989,48,13,12,21,22,0,2,4,6,5,1,1,1,1,1,1,1,3,2,37,39,37,40,40,40,15,11,4,3,2,2,2,3,3,3,3,4,4,4,2, ,3,Estonia, ,1,32,3, , , , , , , , , , , ,1, , ,4,11,1,1,1,0,0,0, , , , , , , , , , , , , , , , , , , , , , , , , , , , , , , , , , , , , , , , , , , , , , , , , ,32,1,3,Estonia,3, , , , , , , , , , , , , , , , , , , , , , , , , , , , , , , , , , , , , , , , , , , , , , , , , , , , , , ,1,1,1,1,1,1,4,37.783,62.722,64.201,7,1,19,19,20,20,18,43,40,88,-8, , , , , , , , , , , , , , , ,4.878,130.864,136.278,41,15,13,14,12,12,14,11,11,4,4,4,4,5.008,94.119,96.073,13,3,4,3,1,2,1,3,4,3,1,3,2,3,2,3,2,4,2,4,3,4,5,4,2,3,1,6,5,5,1,2,4,1,7.802,177.799,181.266,36,20,23,1,1,4,4,4,1,1,37,39,37,4,They are more people persons who need to be close to other people.,38,38,38,3,3,3,5,5,1,2,81, 
4/26/2020 7:55:08,4/26/2020 8:12:12,0,100,1023,1,4/26/2020 8:12:13, ,1,1,1,1,1,1,4,.496,13.195,14.162,20, ,15,17,16,16,17,50,36,95,79, , , , , , , , , , , , , , , ,1.382,130.746,132.038,101,12,13,13,12,15,14,14,11,8,8,8,17,17,15,11,15,5,7,4,7,7,6,6,5,6,6,4,5,6,7,6,6,6,6,8,7,7,4,7,6,7,6,4,6,55.425,381.261,383.488,93,4,4,3,5,2,2,4,4,4,2,4,3,2,3,2,2,2,3,16,15,16,4,3,3,3,3,3,5,3,3,5,6,4,4,3,27,3,3,4,1,2,4,3,111.167,208.952,209.838,84,3,2,20,24,6,2,2,5,7,5,4,5,4,4,5,4,5,5,39,39,39,39,40,40,14,14,3,3,3,4,4,4,3,3,4,5,5,4,2, ,1, , ,1,28,4, , , , ,1, , , , ,1,1, , , ,6,61,1,1,1,0,0,0, , , , , , , , , , , , , , , , , , , , , , , , , , , , , , , , , , , , , , , , , , , , , , , , , ,27,1,6, ,4, , , , , , , , , , , , , , , , , , , , , , , , , , , , , , , , , , , , , , , , , , , , , , , , , , , , , , ,1,1,1,1,1,1,4,.78,15.093,17.197,19,1,17,17,16,18,18,50,39,78,63, , , , , , , , , , , , , , , ,5.464,119.991,120.757,113,15,15,14,12,13,13,13,14,8,6,7,6,1.566,15.289,16.386,18,2,3,2,3,2,3,4,3,3,3,2,3,4,2,2,3,3,3,2,3,3,2,4,3,2,4,3,4,4,4,3,2,3,3.81,61.429,63.423,59,21,22,5,5,9,9,4,5,5,38,38,39,3,This depends on the daym some days I feel goog to get out there and others I want to shut myself away. At this time it's the same. Somedays I'm okay with keeping away from people but others i do want,39,40,39,5,4,4,3,5,1,3,4,Tired and sluggish. Feel down because I'm in the house over eating and drinking. I want to get back to the gym.
4/26/2020 7:43:46,4/26/2020 7:58:51,0,100,905,1,4/26/2020 7:58:51, ,1,1,1,1,1,1,4,7.999,19.058,27.562,7, ,19,19,19,19,20,60,50,90,20, , , , , , , , , , , , , , , ,6.232,217.503,219.919,31,13,13,12,12,13,12,11,12,6,7,6,12,12,11,11,11,7,5,4,5,5,5,6,4,6,5,4,6,5,6,7,5,6,5,6,7,5,4,5,7,6,5,5,5,5.345,184.553,185.385,47,4,2,4,2,4,2,3,3,3,3,4,3,2,3,2,3,3,2,16,16,16,4,4,4,5,3,4,4,3,6,6,6,3,4,2,26,1,1,3,2,3,4,2,7.504,197.461,198.139,46,14,13,21,23,3,4,0,8,8,5,5,5,5,5,5,5,4,4,37,40,38,40,40,40,15,12,4,3,2,4,4,3,5,5,5,5,5,2,2, ,2, ,33,1,37,4,1,1,1,1,1,0,0,0,0,1, ,1, , ,6,30,1,1,1,0,0,0, , , , , , , , , , , , , , , , , , , , , , , , , , , , , , , , , , , , , , , , , , , , , , , , , ,36,1,10, ,4, , , , , , , , , , , , , , , , , , , , , , , , , , , , , , , , , , , , , , , , , , , , , , , , , , , , , , ,1,1,1,1,1,1,4,33.418,41.51,47.089,7,1,19,19,19,19,20,45,40,80,0, , , , , , , , , , , , , , , ,2.318,141.454,143.291,28,12,12,12,12,12,12,12,12,5,5,5,5,4.368,68.058,71.729,12,4,2,4,2,4,2,4,2,4,2,4,2,4,3,2,4,4,2,5,5,5,6,2,4,4,2,6,6,6,2,2,4,2,4.369,134.687,139.872,33,21,23,5,5,5,5,4,4,4,37,41,38,3,Even introverts miss social interactions.,40,40,40,5,5,3,5,4,1,3,0, 
4/26/2020 8:28:59,4/26/2020 8:41:24,0,100,744,1,4/26/2020 8:41:25, ,1,1,1,1,1,1,4,12.542,25.86,31.974,7, ,19,19,19,19,20,40,40,80,85, , , , , , , , , , , , , , , ,5.327,121.152,123.773,35,13,12,12,12,12,12,12,13,7,7,7,12,13,12,14,12,7,6,4,4,6,4,6,4,4,5,4,6,4,6,6,4,7,7,7,7,6,4,6,7,6,4,4,6,4.323,176.449,177.246,46,4,1,3,1,3,1,4,1,3,1,4,1,5,1,4,2,4,1,17,17,13,5,5,5,4,1,3,4,1,6,5,5,4,3,4,27,3,6,5,1,4,4,1,4.598,172.301,173.019,45,13,13,21,23,6,4,1,9,9,4,1,1,4,1,5,1,3,3,37,38,37,40,40,40,16,16,2,1,1,1,1,1,6,6,6,5,5,4,2, ,2, ,34,1,47,4,1,1,1,1, ,0,1,1,2, ,1, , , ,7,90,1,1,1,2,0,0,The survey was well put together and easy to understand., , , , , , , , , , , , , , , , , , , , , , , , , , , , , , , , , , , , , , , , , , , , , , , , ,45,1,10, ,4, , , , , , , , , , , , , , , , , , , , , , , , , , , , , , , , , , , , , , , , , , , , , , , , , , , , , , ,1,1,1,1,1,1,4,6.34,12.05,15.557,8,1,20,20,20,20,20,40,40,4,20, , , , , , , , , , , , , , , ,1.956,88.938,90.585,28,11,11,11,11,11,11,11,11,4,4,4,4,3.017,31.529,32.904,12,3,1,3,1,4,1,3,1,2,1,4,1,4,1,4,1,3,1,5,5,5,5,1,4,4,1,6,5,7,1,4,4,1,4.255,105.926,106.789,36,21,22,1,1,1,1,1,1,1,37,39,37,4,Those that need the social interaction have to get it in uncommon ways.,40,40,40,5,5,5,5,5,1,1,50,I'm feeling comfortable in the way things are going.  I'm not really frustrated at all.
4/26/2020 9:07:42,4/26/2020 9:28:28,0,100,1245,1,4/26/2020 9:28:28, ,1,1,1,1,1,1,4,6.293,17.272,23.439,7, ,17,17,17,17,17,40,40,70,-15, , , , , , , , , , , , , , , ,12.783,206.463,210.95,32,13,13,15,14,15,13,13,12,7,7,7,12,12,12,12,12,7,6,6,4,6,6,6,4,7,6,4,7,8,5,7,5,6,5,7,7,7,4,5,7,5,5,4,6,11.706,297.007,300.244,50,3,2,3,3,3,3,2,3,2,2,2,3,3,2,2,2,3,2,15,15,12,4,4,3,5,2,3,3,2,5,2,5,2,5,2,26,1,5,5,3,2,2,4,17.726,272.753,274.042,47,3,11,21,21,2,.5,0,3,7,5,4,5,1,1,4,4,3,2,38,37,38,39,38,39,14,12,5,5,5,5,5,5,4,4,4,3,4,5,2, ,3,Netherlands, ,1,35,4,1,1,1,1,1,0,0,0,0,1, ,1, , ,6,100,1,1,1,0,0,0,No comments, , , , , , , , , , , , , , , , , , , , , , , , , , , , , , , , , , , , , , , , , , , , , , , , ,34,1,3,Romania,5, , , , , , , , , , , , , , , , , , , , , , , , , , , , , , , , , , , , , , , , , , , , , , , , , , , , , , ,1,1,1,1,1,1,4,2.511,7.438,9.503,7,1,17,17,19,17,17,40,40,80,-10, , , , , , , , , , , , , , , ,1.807,133.19,135.137,30,13,13,15,15,15,13,15,13,5,8,5,8,6.164,87.69,88.402,16,3,3,3,2,3,3,3,3,2,2,3,3,2,2,2,3,2,2,4,4,4,5,4,3,3,3,5,3,5,4,2,2,4,18.378,268.184,269.012,39,21,23,4,4,5,1,1,4,4,39,38,37,4,Extroverts are struggling more with the current pandemic because they tend to get their energy from social interactions.,40,39,39,5,5,3,5,5,1,3,10,My major sources of frustration have little to do with the ongoing pandemic.
4/26/2020 8:17:05,4/26/2020 8:31:52,0,100,886,1,4/26/2020 8:31:52, ,1,1,1,1,1,1,4,8.713,14.487,33.473,7, ,16,17,17,18,17,30,30,70,-10, , , , , , , , , , , , , , , ,6.001,114.601,115.678,26,15,14,17,15,16,16,15,11,8,8,8,11,11,11,12,11,5,5,4,4,5,5,6,6,7,5,4,5,8,7,5,5,7,6,6,5,6,4,6,6,5,7,4,5,3.889,91.382,129.088,47,3,4,3,4,1,3,2,2,4,2,2,2,2,2,3,3,1,3,17,17,17,4,4,4,1,2,2,2,2,6,5,5,2,3,1,28,1,6,7,3,1,4,4,5.525,99.795,270.846,46,2,12,22,21,3,2,1,9,10,10,10,9,9,4,9,9,5,4,40,40,39,39,41,40,15,12,5,6,5,6,5,5,6,5,5,4,5,1,2, ,1, , ,1,40,4, , , , ,1, , , , ,2, ,1, , ,7,100, ,1, , ,2, , , , , , , , , , , , , , , , , , , , , , , , , , , , , , , , , , , , , , , , , , , , , , , , , , ,39,1,9, ,3, , , , , , , , , , , , , , , , , , , , , , , , , , , , , , , , , , , , , , , , , , , , , , , , , , , , , , ,1,1,1,1,1,1,4,2.787,6.498,7.803,7,1,18,18,19,19,17,40,40,80,0, , , , , , , , , , , , , , , ,1.5,75.121,78.261,27,13,12,16,14,14,14,15,12,5,6,7,7,2.434,20.641,21.201,16,3,4,4,2,3,4,4,3,3,3,3,3,4,3,3,3,3,2,4,4,4,2,3,3,3,3,4,5,4,2,2,3,4,3.174,58.102,150.097,37,21,22,10,5,5,5,5,9,9,39,39,38,4,They are used to other people.,40,40,40,5,4,4,5,5,1,3,50, 
4/26/2020 7:57:48,4/26/2020 8:23:26,0,100,1538,1,4/26/2020 8:23:26, ,1,1,1,1,1,1,4,10.774,46.779,51.307,10, ,16,15,19,18,20,35,35,70,-10, , , , , , , , , , , , , , , ,8.421,342.132,342.996,58,12,11,13,13,13,12,11,12,7,7,5,11,11,11,11,11,5,7,4,4,5,5,6,4,4,5,4,6,5,7,5,4,6,6,6,7,6,4,4,7,6,4,5,5,22.916,327.982,328.494,68,2,1,2,1,3,3,3,3,2,3,2,3,3,4,4,2,3,2,17,16,13,6,5,5,4,3,4,3,3,3,6,4,4,3,2,28,1,1,2,2,2,3,2,4.356,323.403,324.005,68,3,12,21,21,4,2,1,8,8,4,4,4,5,1,4,1,2,3,38,38,37,40,38,39,16,14,3,2,3,4,6,6,4,4,5,4,5,6,2, ,1, , ,1,25,4,1,1,1,1,1,0,0,0,0,3, ,1, , ,5,10,1,1,1,0,0,0, , , , , , , , , , , , , , , , , , , , , , , , , , , , , , , , , , , , , , , , , , , , , , , , , ,24,1,9, ,5, , , , , , , , , , , , , , , , , , , , , , , , , , , , , , , , , , , , , , , , , , , , , , , , , , , , , , ,1,1,1,1,1,1,4,4.826,17.625,18.631,7,1,17,16,18,17,21,40,40,70,-5, , , , , , , , , , , , , , , ,12.813,220.559,222.743,40,12,11,12,13,11,11,11,12,4,5,4,4,5.922,68.06,69.305,16,3,1,4,4,2,1,5,2,5,2,5,2,5,2,4,2,5,1,6,6,6,5,2,4,4,1,3,4,3,1,1,4,1,11.597,196.047,197.312,51,21,23,5,1,1,1,1,5,1,37,39,37,4,Introverts can cope better as they do not need as much interaction with others compared to extroverts in order to remain happy.,39,39,40,5,5,5,5,3,1,3,5, 
4/27/2020 7:07:29,4/27/2020 7:31:18,0,100,1429,1,4/27/2020 7:31:19, ,1,1,1,1,1,1,4,19.94,37.262,38.646,7, ,19,19,19,21,20,38,37,80,-20, , , , , , , , , , , , , , , ,4.584,541.978,544.388,69,12,12,12,16,12,15,12,11,8,8,8,13,11,11,11,11,6,7,4,5,5,4,6,4,4,5,6,7,6,8,5,4,7,6,5,8,5,4,5,7,7,4,4,4,6.756,234.451,237.037,55,4,4,3,1,3,2,3,3,3,4,2,5,3,3,4,3,4,3,14,15,11,5,5,5,3,3,3,3,4,7,6,6,3,2,1,27,1,1,5,2,3,3,2,3.79,216.53,218.365,56,11,12,21,20,3,5.5,0,7,6,5,5,9,9,9,5,10,4,1,40,40,38,40,40,38,14,12,3,3,6,6,6,7,4,3,4,6,6,2,1, ,3,Canada, ,1,26,4, , , , ,1, , , , ,1, ,1, , ,9,17,1,1,1,0,0,0, , , , , , , , , , , , , , , , , , , , , , , , , , , , , , , , , , , , , , , , , , , , , , , , , ,25,2,3,Kuwait,4, , , , , , , , , , , , , , , , , , , , , , , , , , , , , , , , , , , , , , , , , , , , , , , , , , , , , , ,1,1,1,1,1,1,4,8.686,20.048,22.678,8,1,17,20,20,20,19,35,38,85,-20, , , , , , , , , , , , , , , ,2.667,229.893,245.602,51,15,11,11,11,12,11,12,12,4,4,4,4,3.649,57.436,59.881,15,2,4,3,1,2,1,3,4,3,2,3,4,3,1,5,3,4,1,4,4,4,3,4,3,4,1,7,4,6,2,3,3,2,3.622,162.071,163.525,41,21,21,9,4,4,9,9,1,4,37,39,37,4,"I think extroverts thrive more in social settings and enjoy being able to interact with peers and friends in person, compared to introverts who might even enjoy having more control over their (virtual",40,40,39,6,6,3,5,5,1,3,0,"I am started to feel frustrated as the weather has been getting nicer and it is sinking in that all the festivals and activities for the summer that I would normally be doing with friends, family and"
4/26/2020 10:29:36,4/26/2020 10:58:43,0,100,1747,1,4/26/2020 10:58:43, ,1,1,1,1,1,1,4,179.409,196.086,197.574,14, ,16,16,17,19,17,37,37,60,26, , , , , , , , , , , , , , , ,2.693,98.289,99.09,75,13,12,15,13,13,13,12,12,8,8,7,15,12,12,13,13,7,6,5,7,7,5,6,6,5,6,7,6,7,7,6,5,6,4,6,6,6,4,5,6,6,4,5,4,3.612,281.018,281.679,86,2,4,2,3,2,3,3,4,2,3,3,4,2,4,3,3,4,3,16,17,13,4,4,5,3,4,4,3,4,5,3,6,2,4,3,26,5,6,6,2,3,4,4,3.283,452.762,453.62,73,13,12,24,21,3.2,3.5,0,9,11,9,9,10,5,4,9,9,3,5,38,41,38,40,39,40,13,11,2,2,3,1,1,4,5,5,5,4,4,2,1, ,1, , ,1,30,4, ,1,1, ,1, ,1,1, ,2, ,1, , ,8,50,1,1,1,1,0,0,No, , , , , , , , , , , , , , , , , , , , , , , , , , , , , , , , , , , , , , , , , , , , , , , , ,29,2,9, ,4, , , , , , , , , , , , , , , , , , , , , , , , , , , , , , , , , , , , , , , , , , , , , , , , , , , , , , ,1,1,1,1,1,1,4,129.131,163.462,163.519,24,1,17,17,19,17,20,37,37,59,12, , , , , , , , , , , , , , , ,1.018,98.028,99.252,58,11,11,15,12,12,12,11,12,5,4,6,4,2.3,122.922,123.955,28,4,4,4,2,2,3,3,2,3,3,4,4,3,4,2,4,3,2,6,6,5,3,3,3,3,4,4,2,6,2,3,4,3,14.914,138.828,139.567,59,24,21,5,5,5,4,1,1,4,37,40,39,3,I think everyone is affected no matter how they are identified. We’re all facing our own individual challenges,39,40,38,5,5,3,3,5,1,3,2,"I just feel fed up, I want to go visit my family."
4/27/2020 11:41:28,4/27/2020 11:56:16,0,100,887,1,4/27/2020 11:56:16, ,1,1,1,1,1,1,4,3.109,30.211,31.027,16, ,16,15,16,18,17,40,40,100,-20, , , , , , , , , , , , , , , ,4.645,149.619,150.342,50,15,16,14,16,16,16,13,13,8,8,8,12,12,11,12,12,5,7,4,5,5,5,6,6,7,5,4,6,5,7,6,6,6,5,6,7,6,4,4,6,5,4,4,5,2.1,188.49,189.319,78,3,5,2,2,3,2,3,4,4,3,3,3,4,4,5,4,4,3,17,15,15,4,3,4,3,2,3,3,3,2,2,2,2,2,3,28,2,2,2,4,1,2,3,16.711,190.664,192.04,61,11,3,22,22,0,0,0,6,6,10,5,10,10,9,10,10,4,4,40,40,40,39,39,39,14,12,7,7,7,7,5,4,2,2,2,2,3,3,2, ,3,Italy, ,1,30,4,1,1,1,1,1,0,0,0,0,4, ,1, , ,5,5,1,1,1,0,0,0, , , , , , , , , , , , , , , , , , , , , , , , , , , , , , , , , , , , , , , , , , , , , , , , , ,30,1,7, ,4, , , , , , , , , , , , , , , , , , , , , , , , , , , , , , , , , , , , , , , , , , , , , , , , , , , , , , , , , , , , , , , , , , , , , , , , , , , , , , , , , , , , , , , , , , , , , , , , , , , , , , , , , , , , , , , , , , , , , , , , , , , , , , , , , , , , , , , , , , , , , , , , , , , , , , , , , , , , , , , , , , , , , , , , , , , , , 
4/27/2020 0:55:42,4/27/2020 1:15:17,0,100,1175,1,4/27/2020 1:15:18, ,1,1,1,1,1,1,4,31.522,46.45,48.621,7, ,17,19,18,16,16,16,40,10,-49, , , , , , , , , , , , , , , ,12.481,171.809,173.794,28,12,12,11,12,17,16,15,12,5,7,7,12,16,11,12,11,4,6,4,5,4,6,7,5,4,7,5,7,8,7,4,7,7,4,4,7,4,4,8,6,8,4,5,4,11.352,271.823,273.602,46,2,4,1,4,1,1,1,4,1,4,1,5,5,2,2,3,3,1,17,17,17, , , ,2,4,4,2,4,2,3,2,1,5,2,27,2,1,5,1,4,5,1,7.142,310.238,310.243,49,12,12,23,20,6,0,0,4,3,9,5,9,9,9,4,1,2,2,39,40,40,37,38,38,15,15,2,2,2,2,2,4,6,5,7,2,4,1,2, ,1, , ,1,58,3, , , , , , , , , , ,1, , , ,4,50,1,1,1,2,2,0, , , , , , , , , , , , , , , , , , , , , , , , , , , , , , , , , , , , , , , , , , , , , , , , , ,61,1,9, ,7, , , , , , , , , , , , , , , , , , , , , , , , , , , , , , , , , , , , , , , , , , , , , , , , , , , , , , ,1,1,1,1,1,1,4,23.168,36.152,39.55,7,1,16,17,17,18,17,26,40,0,-40, , , , , , , , , , , , , , , ,5.073,107.057,116.702,15,15,13,12,12,16,12,16,14,5,7,5,4,10.673,65.128,66.786,12,3,5,4,4,4,1,3,4,2,4,2,5,5,4,2,1,3,3,1,3,3,3,3,3,2,4,2,3,2,2,4,4,1,6.495,162.718,163.93,33,22,20,4,1,5,9,5,1,4,39,40,38,3,"Introverts still need contact, extraverts miss contact",37,38,38,2,3,1,8,6,1,3,0, 
4/26/2020 7:58:47,4/26/2020 8:57:12,0,100,3504,1,4/26/2020 8:57:12, ,1,1,1,1,1,1,4,22.672,55.677,56.114,10, ,17,17,17,17,17,45,40,85,-11, , , , , , , , , , , , , , , ,48.383,431.479,432.578,38,12,12,11,13,12,13,12,15,5,8,8,13,12,12,13,12,7,6,4,4,5,5,7,4,7,4,4,7,6,7,5,5,7,7,8,8,5,6,4,7,8,4,6,6,251.138,943.26,944.907,62,4,4,4,4,4,2,5,1,4,3,4,4,4,1,4,2,4,2,17,17,17,5,5,4,2,5,3,1,4,6,2,4,5,4,2,28,4,4,4,2,2,5,5,7.058,984.674,985.371,68,3,11,20,23,0,0,0,8,9,5,5,5,5,5,1,9,3,4,39,40,40,39,38,38,16,11,4,4,4,5,4,1,5,5,5,5,5,2,2, ,3,Portugal, ,1,23,4,1,1,1,1,1,0,0,0,1,2, ,1, , ,4,100,1,1,1,0,0,0, , , , , , , , , , , , , , , , , , , , , , , , , , , , , , , , , , , , , , , , , , , , , , , , , ,23,1,3,Portugal,5, , , , , , , , , , , , , , , , , , , , , , , , , , , , , , , , , , , , , , , , , , , , , , , , , , , , , , ,1,1,1,1,1,1,4,9.455,17.211,18.157,9,1,19,21,20,19,20,40,40,100,20, , , , , , , , , , , , , , , ,2.328,139.236,140.533,35,15,13,12,14,12,13,11,12,4,4,4,5,124.301,181.957,182.72,16,3,3,2,4,3,1,5,3,5,2,5,2,5,1,5,2,5,1,5,5,5,3,5,3,3,2,5,2,6,2,3,4,3,8.465,284.483,285.257,46,20,24,4,4,1,4,1,1,1,40,39,40,4,Extroverted people I know seem to try to have any excuse they possible can to be around someone,39,39,37,5,5,3,5,4,3,1,30, 
4/26/2020 7:47:35,4/26/2020 8:11:07,0,100,1412,1,4/26/2020 8:11:07, ,1,1,1,1,1,1,4,2.822,6.318,7.707,7, ,16,16,19,19,16,40,40,40,-20, , , , , , , , , , , , , , , ,6.761,111.021,111.691,42,15,15,13,16,14,14,14,14,3,3,3,15,12,12,12,12,7,5,6,7,7,7,6,5,6,5,7,5,7,7,6,7,6,7,7,5,5,6,5,6,7,5,7,8,4.072,340.44,341.2,60,3,2,4,3,3,3,4,3,4,4,4,2,4,3,3,4,4,4,14,16,14,4,4,4,1,4,4,3,3,5,4,3,3,3,2,28,2,4,3,2,3,1,3,4.719,329.655,331.5,60,2,3,22,22,3,0,0,3,6,5,5,5,9,4,5,5,4,3,37,38,39,38,38,40,13,14,5,4,3,5,5,4,5,5,5,4,4,5,2, ,3,Poland, ,1,21,4,1,1,1,1,1,0,0,0,0,2, ,1, , ,4,20,1,1,1,0,0,0, , , , , , , , , , , , , , , , , , , , , , , , , , , , , , , , , , , , , , , , , , , , , , , , , ,20,1,3,Poland,1, , , , , , , , , , , , , , , , , , , , , , , , , , , , , , , , , , , , , , , , , , , , , , , , , , , , , , ,1,1,1,1,1,1,4,5.589,12.316,13.552,8,1,17,17,19,20,19,30,30,44,-31, , , , , , , , , , , , , , , ,1.264,73.473,76.061,40,16,15,15,16,17,15,17,15,7,7,5,5,12.58,67.804,68.267,16,2,4,3,3,4,3,3,4,1,3,3,4,4,4,4,3,2,2,2,4,4,5,3,4,3,4,5,2,2,1,1,1,4,6.066,167.953,168.71,41,23,21,9,9,9,9,9,10,9,40,40,37,3,"Doesnt matter introvert or extravert, we need to do the same things, and everybody's different - there is no archetype of introvert, so we all struggle less or more with the same tasks",37,38,38,3,3,3,5,7,1,1,50, 
4/27/2020 8:57:32,4/27/2020 9:17:12,0,100,1179,1,4/27/2020 9:17:12, ,1,1,1,1,1,1,4,100.678,113.206,114.428,7, ,15,16,15,15,15,44,40,80,20, , , , , , , , , , , , , , , ,13.004,197.782,200.058,37,13,15,15,16,15,15,14,15,7,8,6,12,12,11,11,11,7,5,4,7,5,6,5,6,5,4,7,6,5,6,5,5,5,4,7,6,4,4,4,6,5,5,4,4,4.897,228.269,232.445,50,2,4,2,2,3,1,4,2,3,1,4,2,3,3,4,4,4,2,16,17,13,5,5,5,3,3,2,4,3,5,2,5,1,4,2,27,1,1,4,3,2,3,4,69.304,353.892,354.98,45,12,12,21,22,0,2,0,9,9,5,5,4,9,4,5,1,4,4,40,41,39,38,38,38,14,12,4,5,4,6,6,6,4,4,4,5,5,2,2, ,3,Portugal, ,1,38,3, , , , , , , , , , , ,1, , ,5,30, ,1, , ,2, , , , , , , , , , , , , , , , , , , , , , , , , , , , , , , , , , , , , , , , , , , , , , , , , , ,37,1,3,Portugal,5, , , , , , , , , , , , , , , , , , , , , , , , , , , , , , , , , , , , , , , , , , , , , , , , , , , , , , ,1,1,1,1,1,1,4,17.347,29.006,30.441,7,1,16,17,17,18,16,40,42,80,20, , , , , , , , , , , , , , , ,3.148,138.876,145.226,24,15,15,15,16,16,15,14,16,6,5,6,7,7.755,89.947,91.156,13,3,4,2,2,2,3,4,2,2,3,3,2,2,2,2,2,3,1,5,5,5,4,4,2,3,2,4,2,3,4,1,3,4,3.874,230.617,231.755,33,21,23,5,4,5,9,4,9,9,39,40,40,4,Introverts are already more prone to self isolation. Extroverts on the other hand are out of their usual habitat.,39,39,38,4,4,2,3,6,1,1,0, 
4/26/2020 7:53:08,4/26/2020 8:26:02,0,100,1974,1,4/26/2020 8:26:02, ,1,1,1,1,1,1,4,56.234,178.058,179.888,12, ,17,19,19,19,18,16,16,86,71, , , , , , , , , , , , , , , ,17.63,352.197,354.296,44,12,12,12,16,12,12,12,12,8,8,8,16,15,14,12,14,7,7,4,4,5,4,8,8,6,8,4,7,4,7,6,6,8,6,8,6,5,7,5,8,5,4,6,6,66.751,506.083,507.288,47,4,2,4,1,4,2,4,2,4,1,4,4,4,2,4,2,4,4,17,17,17,6,6,6,7,2,4,4,2,4,4,4,4,2,2,28,4,7,5,1,3,4,2,31.228,269.482,270.684,44,3,11,21,23,1.5,2.5,2,6,6,4,5,5,5,1, ,4,5,5,37,38,37,39,39,40,16,16,6,6,6,6,6,5,6,6,6,4,4,2,2, ,3,GREECE, ,1,54,4,1,1,1,1,1,0,1,0,1,3,1, , , ,5,10,1,1,1,2,4,0,No, , , , , , , , , , , , , , , , , , , , , , , , , , , , , , , , , , , , , , , , , , , , , , , , ,53,1,3,Greece,6, , , , , , , , , , , , , , , , , , , , , , , , , , , , , , , , , , , , , , , , , , , , , , , , , , , , , , ,1,1,1,1,1,1,4,38.609,96.921,99.778,8,1,19,20,19,19,19,24,35,100,40, , , , , , , , , , , , , , , ,4.24,186.339,189.161,44,11,12,13,16,12,12,12,12,4,6,4,5,7.354,95.607,116.76,13,4,2,4,1,4,1,4,1,4,1,4,4,4,3,4,3,4,2,5,5,6,6,2,4,4,2,7,6,6,1,3,4,1,11.089,230.12,234.298,35,20,23,1,1,4,1,1,1,1,37,37,37,4,"I think extroverts, because they had more problem with the lockdown and the guarantine.",40,40,40,5,5,4,6,6,3,1,4,I am not   frustrated.
4/27/2020 8:11:44,4/27/2020 8:23:54,0,100,729,1,4/27/2020 8:23:55, ,1,1,1,1,1,1,4,1.122,12.536,13.697,12, ,16,19,17,19,15,52,37,51,-38, , , , , , , , , , , , , , , ,2.021,128.108,129.009,54,15,12,15,11,13,15,12,16,8,8,6,11,16,12,11,12,8,7,4,6,7,8,8,4,4,7,6,7,7,7,7,4,8,5,8,8,7,4,6,8,7,4,4,5,2.327,136.662,137.391,64,4,5,4,5,4,1,3,1,4,3,4,2,4,3,4,1,4,1,15,14,12,5,5,5,1,4,3,2,4,7,7,7,1,4,4,28,1,1,5,1,4,4,4,3.115,129.655,142.191,71,13,14,20,23,14,0,30,6,4,5,9,9,10,10,9,9,4,5,39,41,41,41,39,40,16,11,2,2,2,2,2,2,7,7,7,6,6,3,1, ,1, , ,1,26,3, , , , , , , , , , ,1, , , ,5,20,1,1,1,0,0,0, , , , , , , , , , , , , , , , , , , , , , , , , , , , , , , , , , , , , , , , , , , , , , , , , ,25,2,9, ,6, , , , , , , , , , , , , , , , , , , , , , , , , , , , , , , , , , , , , , , , , , , , , , , , , , , , , , ,1,1,1,1,1,1,4,3.858,13.619,14.697,11,1,19,19,19,18,19,49,38,100,0, , , , , , , , , , , , , , , ,2.18,90.443,91.53,38,16,12,16,16,11,16,12,16,4,6,4,6,10.404,83.647,84.401,19,5,5,5,1,5,1,1,1,3,1,5,1,5,3,4,2,5,1,5,5,5,1,2,3,2,2,1,1,1,2,5,5,5,7.171,235.451,236.202,46,21,23,5,4,5,9,9,9,5,39,41,38,4,Extroverts thrive off social interaction which that cannot currently do.,41,41,41,5,5,1,5,9,1,3,0, 
4/27/2020 7:21:51,4/27/2020 7:31:05,0,100,553,1,4/27/2020 7:31:05, ,1,1,1,1,1,1,4,1.616,4.208,5.001,8, ,20,21,21,21,20,45,43,90,9, , , , , , , , , , , , , , , ,4.243,71.815,72.486,35,11,11,11,11,11,11,11,11,7,8,8,11,11,11,11,11,7,6,4,4,4,4,7,4,4,5,4,5,4,7,5,4,5,4,7,8,4,5,4,7,6,4,6,4,3.241,128.249,130.654,52,5,1,5,1,5,1,5,1,4,1,4,1,4,3,5,3,5,1,17,17,17,5,5,5,6,2,5,5,1,6,3,7,1,1,1,28,1,5,4,1,1,2,1,2.699,138.49,139.225,52,12,12,21,22,3,1,1,8,8,1,1,1,1,1,1,1,2,2,37,39,37,41,41,41,16,15,2,2,1,5,5,4,3,3,4,6,6,2,2, ,2, ,39,1,37,4, , ,1, ,1, , ,2, ,1, ,1, , ,9,40,1,1,1,0,0,0,I thought this was interesting, , , , , , , , , , , , , , , , , , , , , , , , , , , , , , , , , , , , , , , , , , , , , , , , ,36,1,10, ,5, , , , , , , , , , , , , , , , , , , , , , , , , , , , , , , , , , , , , , , , , , , , , , , , , , , , , , ,1,1,1,1,1,1,4,1.355,3.987,4.791,8,1,16,20,20,20,17,44,40,86,11, , , , , , , , , , , , , , , ,1.594,80.499,82.317,35,11,11,16,11,11,11,11,11,4,4,4,4,2.38,24.675,26.035,15,5,1,5,2,5,1,5,1,3,1,5,1,5,2,5,3,4,1,5,6,5,7,2,5,4,1,7,3,6,1,1,4,1,1.722,71.307,71.931,41,21,23,1,1,1,1,1,1,1,37,40,37,4,Introverts are comfortable with and more used to being by themselves,40,41,41,6,6,4,5,5,1,3,0,It's just frustrating working from home with kids who also aren't in school. Everyone is getting a little stir crazy
4/26/2020 16:01:48,4/26/2020 16:25:39,0,100,1430,1,4/26/2020 16:25:39, ,1,1,1,1,1,1,4,4.902,53.612,55.983,16, ,17,18,19,17,18,40,37,50,-25, , , , , , , , , , , , , , , ,2.245,270.833,272.477,80,13,13,14,15,14,13,13,12,6,7,7,14,14,12,12,12,7,5,4,7,5,4,5,4,4,4,7,6,4,5,7,4,6,7,6,8,5,4,5,8,5,4,5,6,13.949,269.565,271.708,84,3,2,2,3,2,2,3,1,2,1,3,3,3,3,2,2,1,1,15,15,14,2,3,3,3,3,4,3,2,5,4,3,2,3,2,26,5,3,5,2,3,3,3,8.107,261.95,264.603,81,13,11,23,22,1,1,2,8,8,4,4,4,4,1,5,4,3,3,38,39,38,38,39,39,14,14,4,4,4,2,2,2,3,4,4,3,4,3,2, ,1, , ,1,54,4,1,1,1,1,1,0,0,0,0,2,1, , , ,7,10,1,1,1,0,0,0, , , , , , , , , , , , , , , , , , , , , , , , , , , , , , , , , , , , , , , , , , , , , , , , , ,54,1,9, ,3, , , , , , , , , , , , , , , , , , , , , , , , , , , , , , , , , , , , , , , , , , , , , , , , , , , , , , ,1,1,1,1,1,1,4,3.226,34.476,37.124,11,1,16,18,19,17,16,40,36,60,-21, , , , , , , , , , , , , , , ,85.965,481.229,483.553,121,13,12,12,12,14,12,12,12,4,5,4,4,4.015,94.328,95.516,17,3,3,3,3,2,1,4,1,2,1,4,3,4,3,2,1,3,1,2,4,3,3,2,5,3,1,6,4,6,2,2,3,3,7.823,370.335,371.945,47,21,21,4,1,4,4,5,5,1,37,39,38,4,Extroverts seem to like/neede more social interactions,39,39,39,4,5,3,5,6,1,3,0, 
4/26/2020 7:49:17,4/26/2020 8:12:45,0,100,1407,1,4/26/2020 8:12:46, ,1,1,1,1,1,1,4,13.648,32.876,35.192,10, ,19,19,18,19,18,30,48,90,20, , , , , , , , , , , , , , , ,4.314,139.277,140.747,52,15,15,15,15,15,15,14,15,8,8,8,14,14,14,13,14,6,7,5,7,7,7,7,5,7,6,7,7,7,7,6,7,7,7,7,7,7,4,6,7,7,6,4,7,13.088,270.526,271.498,82,4,2,4,3,3,3,4,4,3,2,3,3,3,3,4,4,2,3,15,14,14,4,4,4,2,4,4,4,4,4,4,5,4,5,4,26,4,4,4,2,3,4,3,3.434,602.496,603.634,80,13,12,21,22,4,1,1,7,5,5,5,5,5,5,5,5,2,2,39,40,39,39,39,39,14,14,4,4,4,4,4,4,4,4,4,4,4,4,2, ,1, , ,1,21,4, , , ,1,1, , , , , , ,1, , ,6,90, ,1, , , , , , , , , , , , , , , , , , , , , , , , , , , , , , , , , , , , , , , , , , , , , , , , , , , , , ,21,1,9, ,4, , , , , , , , , , , , , , , , , , , , , , , , , , , , , , , , , , , , , , , , , , , , , , , , , , , , , , ,1,1,1,1,1,1,4,2.642,9.345,10.349,9,2,19,19,19,19,19,49,40,70,25, , , , , , , , , , , , , , , ,3.306,673.712,675.499,48,14,15,14,15,14,14,14,13,5,5,5,5,3.597,553.399,553.908,30,3,4,4,3,3,3,4,4,3,4,3,4,3,3,4,4,3,5,4,3,4,2,4,4,3,3,7,2,2,2,4,4,3,3.843,288.798,290.06,57,22,21,9,5,9,9,9,9,9,39,40,39,3,It remains the same for now,40,40,40,5,5,5,3,9,3,1,40,"it's not bad , fine"
4/26/2020 7:59:54,4/26/2020 8:13:47,0,100,833,1,4/26/2020 8:13:47, ,1,1,1,1,1,1,4,9.206,21.954,23.025,9, ,15,17,15,16,15,40,40,50,-40, , , , , , , , , , , , , , , ,7.314,221.74,222.75,58,15,12,15,12,16,12,16,13,8,8,8,11,11,11,11,11,7,6,4,4,5,7,6,4,4,5,4,7,7,7,5,5,7,8,8,8,4,4,4,8,7,4,4,8,5.045,145.9,147.31,59,4,4,3,3,2,2,3,3,2,2,2,3,2,3,1,3,2,4,17,17,17,4,5,5,3,5,3,3,4,5,6,6,2,5,2,27,3,1,4,2,1,4,2,43.787,220.952,221.95,66,14,14,20,22,7,1,2,8,8,5,5,5,5,5,5,1,3,4,40,41,39,39,38,40,16,17,3,3,3,3,3,5,6,6,6,5,4,3,1, ,1, , ,1,47,3, , , , , , , , , , , ,1, , ,9,10,1,1,1,0,0,0,No, , , , , , , , , , , , , , , , , , , , , , , , , , , , , , , , , , , , , , , , , , , , , , , , ,47,2,9, ,4, , , , , , , , , , , , , , , , , , , , , , , , , , , , , , , , , , , , , , , , , , , , , , , , , , , , , , ,1,1,1,1,1,1,4,4.198,10.745,11.964,8,1,15,19,18,15,15,40,40,60,-40, , , , , , , , , , , , , , , ,3.297,84.529,85.718,21,16,14,16,14,15,14,15,12,7,7,5,6,2.318,34.241,36.26,16,3,5,3,5,4,2,4,2,4,1,3,2,2,4,2,4,3,2,5,5,5,2,4,5,4,3,2,6,6,2,3,4,2,3.354,89.547,90.372,42,20,22,5,4,9,10,10,5,4,39,41,39,4,I think extroverts crave attention,40,40,40,5,5,1,6,7,1,3,0,I live alone so feeling isolated and alone.
4/26/2020 7:45:57,4/26/2020 7:55:21,0,100,563,1,4/26/2020 7:55:22, ,1,1,1,1,1,1,4,40.044,57.14,58.762,7, ,19,19,17,19,17,32,40,60,-30, , , , , , , , , , , , , , , ,3.63,74.328,75.413,25,15,16,16,16,16,16,16,16,6,8,8,16,16,12,12,11,7,6,4,6,5,5,6,4,5,5,6,6,6,7,5,4,5,7,7,7,7,4,7,7,7,5,4,7,2.297,92.186,92.745,48,2,5,2,5,3,2,2,4,3,4,2,4,2,4,3,3,2,2,12,16,12,5,5,5,2,4,3,3,4,1,1,2,3,4,2,27,4,4,5,4,3,4,4,7.862,207.582,208.423,47,2,3,22,21,1,0,0,3,4,9,9,9,9,9,9,9,2,3,41,41,40,38,38,38,16,16,6,6,6,6,7,6,5,5,5,4,4,2,1, ,2, ,5,1,20,3, , , , , , , , , , , ,1, , ,9,10,1, , ,4, , , , , , , , , , , , , , , , , , , , , , , , , , , , , , , , , , , , , , , , , , , , , , , , , , , ,20,2,10, ,4, , , , , , , , , , , , , , , , , , , , , , , , , , , , , , , , , , , , , , , , , , , , , , , , , , , , , , ,1,1,1,1,1,1,4,5.923,13.25,22.814,7,1,16,17,16,19,16,36,42,30,-40, , , , , , , , , , , , , , , ,1.542,92.939,94.502,31,15,14,15,16,16,13,16,16,7,8,7,8,2.41,119.139,119.55,16,3,5,3,4,2,3,1,5,2,5,1,5,2,4,4,4,2,4,4,2,2,2,5,2,2,5,2,1,2,4,4,4,3,47.544,122.13,122.394,41,22,24,9,9,9,9,4,5,9,40,41,41,3,I think extroverts are generally more optimistic and better able to cope,38,40,38,5,4,2,7,3,1,3,24, 
4/26/2020 10:49:48,4/26/2020 11:00:34,0,100,645,1,4/26/2020 11:00:34, ,1,1,1,1,1,1,4,3.439,7.747,9.554,8, ,19,19,19,19,19,20,20,90,40, , , , , , , , , , , , , , , ,13.144,152.764,153.807,28,11,11,17,11,11,11,11,11,8,8,8,11,11,11,11,11,7,7,4,7,7,4,7,4,4,4,7,7,4,7,7,4,7,4,7,7,4,4,4,7,7,4,4,7,2.955,156.839,157.567,44,5,1,5,1,5,1,5,1,5,1,5,1,5,1,5,1,5,1,17,17,17,6,6,6,5,1,5,5,1,3,2,3,4,4,4,28,1,7,7,1,5,5,1,1.958,115.761,116.39,46,2,12,21,23,4,3,2,9,7,5,1,1,4,1,1,1,4,4,37,41,37,41,41,41,17,15,6,6,6,7,6,3,6,6,6,6,6,6,1, ,2, ,15,1,28,4,1,1,1,1,1,0,0,0,0,2, ,1, , ,6,100,1,1,1,0,2,0,N/A, , , , , , , , , , , , , , , , , , , , , , , , , , , , , , , , , , , , , , , , , , , , , , , , ,27,2,10, ,3, , , , , , , , , , , , , , , , , , , , , , , , , , , , , , , , , , , , , , , , , , , , , , , , , , , , , , ,1,1,1,1,1,1,4,1785.192,1793.895,1795.303,9,1,19,19,19,19,19,20,30,100,25, , , , , , , , , , , , , , , ,1.642,124.653,125.797,36,12,12,16,12,12,12,12,12,4,4,4,4,2.772,32.016,33.676,19,5,1,5,1,5,1,5,1,5,1,5,1,5,1,5,1,5,1,6,6,6,6,1,4,4,1,6,6,6,1,4,4,1,2.785,118.298,119.26,49,21,23,4,1,1,1,1,4,1,37,37,37,4,Introverts are used to entertaining themselves. Extroverts rely a lot on other people for entertainment.,41,41,41,6,6,6,5,5,1,3,10,I act as a full-time caregiver for my grandfather who had dementia. That is pretty much my only main source of frustration.
4/26/2020 11:34:28,4/26/2020 11:52:52,0,100,1103,1,4/26/2020 11:52:53, ,1,1,1,1,1,1,4,28.552,53.033,54.05,7, ,16,16,19,16,16,26,26,90,0, , , , , , , , , , , , , , , ,20.137,189.342,190.419,45,12,12,16,15,12,12,12,11,8,8,8,14,11,15,11,11,7,7,4,4,7,4,7,4,7,5,4,7,4,7,7,4,7,6,7,7,5,5,5,7,7,4,7,5,4.538,245.106,246.681,46,5,2,5,1,5,1,3,1,3,1,3,1,4,3,4,2,4,3,17,17,15, , , ,4,2,4,3,3,6,6,6,4,1,2,27,2,7,5,1,4,4,1,11.774,267.553,267.561,46,11,12,21,23,5,4,0,7,7,5,5,5,5,4,1,5,5,4,39,39,37,40,40,40,16,16,2,2,4,4,6,5,4,4,4,5,5,3,2, ,2, ,45,1,57,4, , , ,1,1, , , ,2,1, ,1, , ,6,100,1,1,1,0,0,0,No, , , , , , , , , , , , , , , , , , , , , , , , , , , , , , , , , , , , , , , , , , , , , , , , ,56,1,3, ,5, , , , , , , , , , , , , , , , , , , , , , , , , , , , , , , , , , , , , , , , , , , , , , , , , , , , , , ,1,1,1,1,1,1,4,18.206,46.693,47.709,7,1,16,16,17,19,16,26,26,80,21, , , , , , , , , , , , , , , ,5.14,165.071,176.984,36,12,12,15,12,12,12,11,12,5,4,5,4,11.84,56.416,61.688,12,4,1,5,1,4,1,4,2,3,1,3,1,4,2,4,1,3,1,4,4,4,5,3,4,3,1,6,5,6,1,4,4,1,11.344,168.575,173.163,33,21,23,4,5,5,4,1,1,5,37,38,37,4,Extroverts typically outgoing and are dynamic and need more interactions with others. This shelter at home or work from home makes the interactions less human and hence makes it difficult for them.,40,41,40,5,5,4,4,2,1,2,1, 
4/26/2020 7:43:09,4/26/2020 8:04:30,0,100,1280,1,4/26/2020 8:04:30, ,1,1,1,1,1,1,4,6.248,84.573,88.41,8, ,17,17,17,19,17,16,16,100,0, , , , , , , , , , , , , , , ,9.648,232.742,240.514,30,13,13,13,14,13,13,13,14,2,7,7,13,13,11,15,11,6,6,5,6,6,6,6,4,6,5,6,6,5,6,6,5,6,7,7,7,7,4,5,7,5,4,4,7,22.791,280.925,283.138,48,3,1,3,1,3,1,3,2,2,1,3,1,5,1,3,1,3,2,17,17,13,6,6,6,3,2,4,3,1,7,7,7,4,2,3,28,1,1,4,3,2,3,3,15.308,324.302,327.887,48,11,12,21,23,0,0,3.5,6,6,1,1,4,1,1,4,1,2,2,37,38,37,39,39,40,15,15,4,4,3,5,1,1,4,3,4,3,3,3,2, ,1, , ,1,56,4,1,1,1,1,1,0,0,0,0,1, , ,1, ,7,40,1,1,1,0,0,0,no, , , , , , , , , , , , , , , , , , , , , , , , , , , , , , , , , , , , , , , , , , , , , , , , ,56,1,9, ,5, , , , , , , , , , , , , , , , , , , , , , , , , , , , , , , , , , , , , , , , , , , , , , , , , , , , , , ,1,1,1,1,1,1,4,16.069,33.278,35.524,8,1,16,18,19,18,17,16,16,100,0, , , , , , , , , , , , , , , ,6.616,105.529,112.075,20,14,12,13,14,14,14,14,14,4,4,4,4,8.224,54.522,55.783,12,3,2,2,1,2,1,2,1,2,1,4,1,5,1,3,1,3,1,5,5,5,2,3,4,3,1,7,7,7,1,2,2,2,5.945,230.5,234.42,40,21,21,1,1,1,1,1,9,1,37,38,38,4,Introverts don't go out much anyway,39,39,39,3,3,4,5,5,1,3,8,can't go out for long rides on my motorbike :(
4/26/2020 9:47:07,4/26/2020 10:15:15,0,100,1687,1,4/26/2020 10:15:15, ,1,1,1,1,1,1,4,37.479,67.458,68.742,10, ,16,17,17,17,17,45,40,65,-30, , , , , , , , , , , , , , , ,3.323,556.305,559.532,163,12,15,16,12,12,14,11,13,8,8,8,11,11,12,11,12,8,6,4,4,7,4,6,4,5,7,4,6,4,6,7,5,5,4,8,8,5,4,6,7,5,4,7,4,2.25,222.32,223.001,124,2,3,2,3,2,4,2,4,2,2,2,2,2,3,2,3,2,4,15,13,15,3,3,2,3,2,3,3,2,2,1,1,4,3,2,26,2,5,3,2,3,4,3,1.666,317.287,320.254,145,3,12,22,21,4.5,0,2,8,6,5,5,5,4,5,9,9,5,5,39,39,39,38,39,39,14,15,4,5,5,6,7,6,4,4,4,4,4,2,2, ,1, , ,1,35,4, ,1, , ,1, ,1, , ,1, ,1, , ,8,5,1,1,1,0,0,0,"No, thanks", , , , , , , , , , , , , , , , , , , , , , , , , , , , , , , , , , , , , , , , , , , , , , , , ,34,1,9, ,5, , , , , , , , , , , , , , , , , , , , , , , , , , , , , , , , , , , , , , , , , , , , , , , , , , , , , , ,1,1,1,1,1,1,4,32.588,93.45,94.114,23,1,17,17,17,18,16,54,40,66,-30, , , , , , , , , , , , , , , ,2.062,249.324,250.049,77,12,12,16,11,11,11,11,12,4,4,5,4,1.523,65.649,66.402,27,2,3,2,3,1,4,2,4,2,4,2,4,2,4,2,5,2,4,2,2,2,3,3,3,2,4,2,1,3,2,3,4,3,1.469,389.338,390.19,125,21,20,4,5,9,10,4,1,9,40,41,37,4,people who are used to stepping out of their houses are now locked up in their houses.,37,38,37,4,4,1,9,1,1,3,0,my wife who is a short temper always asks me to look after my child irrespective if i am over a call with client or in a urgent meeting. People locked up in houses are feeling frustrated since its bee
4/27/2020 3:18:44,4/27/2020 3:45:24,0,100,1599,1,4/27/2020 3:45:24, ,1,1,1,1,1,1,4,34.76,131.175,134.316,9, ,17,19,17,19,19,30,40,90,90, , , , , , , , , , , , , , , ,12.391,181.74,356.109,34,13,12,17,12,12,12,11,12,8,8,8,17,17,12,16,14,8,8,4,4,5,4,7,4,4,4,4,5,7,7,6,4,5,4,8,5,7,6,4,7,6,4,4,4,3.957,173.667,174.805,62,2,2,5,3,4,2,5,2,5,2,5,2,4,4,5,4,4,1,17,17,17,6,6,6,3,4,4,4,2,6,6,7,4,2,3,28,4,5,5,1,5,5,1,4.021,139.064,156.313,54,13,14,24,24,3,7,5,9,8,5,5,5,5,1,4,9,2,2,39,39,37,40,40,39,17,17,4,5,3,5,5,5,6,7,7,6,6,2,2, ,1, , ,1,40,4,1,1,1,1,1,0,0,0,1,2, ,1, , ,6,35,1,1,1,5,3,1,"Enjoyed part one, bring on the sequels :)", , , , , , , , , , , , , , , , , , , , , , , , , , , , , , , , , , , , , , , , , , , , , , , , ,39,1,9, ,4, , , , , , , , , , , , , , , , , , , , , , , , , , , , , , , , , , , , , , , , , , , , , , , , , , , , , , ,1,1,1,1,1,1,4,7.475,102.919,103.578,26,1,17,20,19,19,17,30,40,80,-5, , , , , , , , , , , , , , , ,.696,150.34,151.139,110,15,12,16,15,13,12,12,14,6,8,6,7,14.001,67.38,68.852,33,3,2,3,4,2,4,5,3,5,5,5,2,3,5,5,5,5,2,5,5,5,3,3,3,4,3,6,5,7,2,4,5,3,4,113.691,114.761,100,21,22,5,4,9,9,4,5,9,40,40,38,4,"Extroverts have less chance to be extrovert and to express themselves around other people, being an extrovert myself I undrrstand this.",39,40,39,4,5,3,5,5,1,1,80,Missing human contact and the daily jokes and fun office atmosphere.
4/28/2020 8:23:58,4/28/2020 8:35:01,0,100,663,1,4/28/2020 8:35:02, ,1,1,1,1,1,1,4,7.026,16.017,17.081,7, ,19,19,20,21,20,40,36,100,30, , , , , , , , , , , , , , , ,7.425,99.979,100.899,25,11,11,13,12,11,12,12,11,6,7,8,11,11,11,12,11,7,7,4,4,5,4,6,4,4,5,5,7,4,6,4,4,7,6,5,8,5,4,4,8,6,4,4,6,4.769,212.787,214.591,46,4,1,5,1,4,1,5,2,5,1,5,1,5,2,4,3,4,2,17,17,17,6,6,6,5,3,4,4,2,7,7,7,2,4,1,28,1,7,4,1,3,4,1,4.231,117.334,118.178,44,12,12,21,23,4,0,0,11,8,1,1,1, ,4,1,4,3,5,37,38,37,41,41,41,15,14,4,2,4,2,2,5,6,6,6,5,5,6,1, ,3,Ireland, ,1,30,4,1,1,1,1,1,0,0,0,0,2, ,1, , ,8,19,1,1,1,0,0,0, , , , , , , , , , , , , , , , , , , , , , , , , , , , , , , , , , , , , , , , , , , , , , , , , ,30,2,5, ,4, , , , , , , , , , , , , , , , , , , , , , , , , , , , , , , , , , , , , , , , , , , , , , , , , , , , , , ,1,1,1,1,1,1,4,6.667,14.977,16.05,7,1,19,20,20,20,20,42,38,95,15, , , , , , , , , , , , , , , ,2.237,91.509,94.698,24,12,11,12,12,13,11,11,11,4,4,4,4,121.993,152.265,153.146,12,5,1,4,1,5,1,4,1,4,2,3,2,3,1,4,4,4,3,5,5,4,5,2,4,4,2,7,7,5,1,2,3,1,4.66,122.066,123.955,33,21,23,4,1,1,1,1,4,1,37,39,37,4,I am mostly introvert and a lot of my friends are too and we discussed this among the group and found we seem to cope well. We set up gaming nights or just video chats and that is working for us well,41,41,40,5,5,6,5,5,1,1,0, 
4/26/2020 8:06:28,4/26/2020 8:16:24,0,100,596,1,4/26/2020 8:16:24, ,1,1,1,1,1,1,4,21.102,32.955,34.014,7, ,17,17,16,17,17,40,40,80,-20, , , , , , , , , , , , , , , ,10.779,142.563,143.314,44,13,17,13,11,12,14,14,14,8,8,8,15,15,16,11,14,7,5,7,8,5,7,7,4,5,5,8,5,5,7,7,6,6,6,8,7,5,4,5,7,7,4,6,5,5.278,108.399,109.377,54,4,3,3,4,4,3,4,3,4,3,2,4,3,2,4,4,2,3,17,17,12,4,5,4,1,4,3,3,2,1,1,1,3,5,4,28,3,3,5,3,1,1,1,5.157,96.699,97.329,51,11,11,24,20,2,1,0,8,8,5,1,5,10,9,9,1,2,4,40,39,37,38,38,38,14,12,5,5,4,6,3,2,6,6,6,3,3,3,2, ,3,Poland, ,1,22,4, , , , ,1, , , , ,2, ,1, , ,5,10,1,1,1,0,0,0, , , , , , , , , , , , , , , , , , , , , , , , , , , , , , , , , , , , , , , , , , , , , , , , , ,21,1,3,Poland,3, , , , , , , , , , , , , , , , , , , , , , , , , , , , , , , , , , , , , , , , , , , , , , , , , , , , , , ,1,1,1,1,1,1,4,2.961,6.603,7.515,7,1,17,16,17,19,17,40,45,60,-20, , , , , , , , , , , , , , , ,2.598,97.396,98.872,31,15,17,15,13,14,14,15,13,5,6,7,6,2.819,32.251,33.063,13,3,4,2,4,3,3,2,3,3,1,4,4,2,4,2,5,4,4,3,3,2,1,3,3,2,3,1,1,1,1,2,3,1,3.21,76.98,77.667,36,22,21,5,9,5,9,4,5,4,40,37,38,4,Many activities extroverts used to take part in are banned or regulated.,38,39,38,4,4,2,5,4,1,2,20, 
4/26/2020 8:39:46,4/26/2020 9:49:09,0,100,4162,1,4/26/2020 9:49:10, ,1,1,1,1,1,1,4,6.354,88.773,89.953,11, ,17,18,16,19,16,20,40,30,-40, , , , , , , , , , , , , , , ,179.467,471.571,472.897,78,13,13,14,14,13,15,13,16,2,3,5,13,15,12,14,14,7,7,5,5,7,5,6,6,6,6,5,7,7,6,6,5,6,7,6,6,7,7,5,6,6,5,7,5,.956,2803.375,2804.595,52,2,4,2,3,1,4,3,3,2,1,3,3,3,2,2,1,2,1,15,17,16,2,4,2,3,3,3,2,4,5,1,3,4,2,1,27,4,2,2,2,1,3,4,4.446,612.965,613.66,113,2,11,21,22,2,1,0,5,7,4,5,4,4,9,4,5,2,1,38,38,39,40,39,38,14,12,2,5,3,4,2,5,4,4,3,3,2,2,2, ,3,Poland, ,1,19,4,1,1,1,1,1,0,0,0,1,1, , , ,1,5,90, , , , , , , , , , , , , , , , , , , , , , , , , , , , , , , , , , , , , , , , , , , , , , , , , , , , , , , ,19,1,3,Poland,4, , , , , , , , , , , , , , , , , , , , , , , , , , , , , , , , , , , , , , , , , , , , , , , , , , , , , , ,1,1,1,1,1,1,4,35.018,49.584,54.08,7,1,18,19,19,19,20,50,50,80,50, , , , , , , , , , , , , , , ,.826,325.964,329.496,65,12,13,13,15,12,12,12,12,4,4,5,5,3.988,3408.518,3410.01,25,3,2,3,2,4,3,4,1,4,1,4,1,4,2,3,4,5,2,3,4,4,6,2,2,4,1,6,4,5,2,1,3,3,2.706,236.782,240.289,77,21,23,4,1,4,1,4,5,1,38,37,38,4,"Extroverts needs more contact with other people, which is difficult with the current pandemic.",39,38,40,2,4,5,5,5,1,1,95, 
4/26/2020 11:52:15,4/26/2020 12:11:20,0,100,1145,1,4/26/2020 12:11:21, ,1,1,1,1,1,1,4,27.072,40.981,41.92,7, ,19,19,17,18,17,40,40,80,-14, , , , , , , , , , , , , , , ,10.694,209.631,211.1,39,13,13,13,12,13,12,12,12,7,7,6,12,12,11,11,11,5,6,5,5,7,5,6,5,5,6,5,7,6,6,7,6,7,5,7,7,5,5,5,7,7,6,5,5,3.405,153.631,154.495,51,2,4,3,4,2,2,3,3,3,2,2,3,3,4,3,2,3,2,16,17,15,4,4,3,3,3,4,3,4,6,2,3,4,2,2,27,2,5,4,2,3,4,2,5.667,201.131,202.118,45,12,12,21,23,4.5,2.5,1,5,5,5,4,5,5,4,9,5,3,4,39,40,38,39,40,40,15,16,4,5,4,5,6,6,5,5,5,5,4,3,2, ,3,Canada, ,1,30,4,1,1,1,1,1,0,0,1,0,1, ,1, , ,7,100,1,1,1,1,1,0,"Interesting study, thank you for the opportunity", , , , , , , , , , , , , , , , , , , , , , , , , , , , , , , , , , , , , , , , , , , , , , , , ,29,1,1, ,4, , , , , , , , , , , , , , , , , , , , , , , , , , , , , , , , , , , , , , , , , , , , , , , , , , , , , , ,1,1,1,1,1,1,4,5.864,14.545,16.4,7,2,19,19,19,19,19,40,40,73,-17, , , , , , , , , , , , , , , ,9.772,169.624,171.419,31,13,13,15,12,14,15,13,12,6,6,6,5,5.275,35.361,36.316,12,1,3,3,2,3,1,3,2,2,2,3,2,4,3,4,3,3,1,3,4,3,3,3,4,3,2,5,3,4,2,4,4,3,5.455,200.945,202.322,33,21,22,5,4,4,4,4,4,4,38,39,38,4,Extroverts are generally around a variety of people and look forward to interactions with strangers or new people. This situations caters to people that do not wish to communicate with many people,39,40,39,5,4,3,5,5,1,3,90,I feel my major source of frustration is dealing with the unknown and the uncertainty of everything. Money is getting tight as my wife has been furloughed.
4/26/2020 7:43:51,4/26/2020 7:57:21,0,100,809,1,4/26/2020 7:57:21, ,1,1,1,1,1,1,4,11.719,47.891,48.729,12, ,21,21,21,21,21,25,30,12,0, , , , , , , , , , , , , , , ,8.879,136.505,137.914,82,11,14,14,15,11,15,11,11,8,8,8,11,14,17,11,11,8,8,4,4,4,4,8,4,4,6,4,8,4,4,8,4,4,4,7,8,6,4,4,8,4,4,4,4,11.986,160.506,161.576,90,4,1,5,1,5,1,5,1,5,1,4,1,5,2,4,1,5,1,16,17,17,6,6,6,2,1,5,4,1,7,4,7,3,4,2,28,1,7,7,1,1,5,3,3.232,227.594,228.335,99,11,11,20,24,5,5,2,6,6,5,4,5,5,4,4,1,5,5,37,37,37,41,41,41,14,11,3,6,4,2,4,7,7,7,7,6,6,6,1, ,1, , ,1,29,3, , , , , , , , , , , ,1, , ,5,25,1,1,1,0,0,0, , , , , , , , , , , , , , , , , , , , , , , , , , , , , , , , , , , , , , , , , , , , , , , , , ,28,2,9, ,2, , , , , , , , , , , , , , , , , , , , , , , , , , , , , , , , , , , , , , , , , , , , , , , , , , , , , , ,1,1,1,1,1,1,4,1.559,12.336,14.243,12,1,21,21,21,21,21,25,30,12,79, , , , , , , , , , , , , , , ,1.892,150.941,152.42,80,11,11,14,11,11,11,11,11,4,4,4,4,4.086,33.81,35.148,21,5,1,5,1,4,1,5,1,5,1,4,5,5,1,4,1,5,1,6,6,6,1,2,3,4,2,4,3,7,2,1,5,3,3.088,89.548,90.299,69,21,23,1,1,5,5,4,1,1,37,37,37,4,There used to being around people a lot of time,41,41,41,6,6,6,5,1,1,3,5, 
4/26/2020 7:57:39,4/26/2020 8:39:24,0,100,2505,1,4/26/2020 8:39:25, ,1,1,1,1,1,1,4,27.487,170.773,172.089,11, ,17,18,17,17,19,40,45,90,60, , , , , , , , , , , , , , , ,70.553,540.275,589.401,63,12,12,12,12,12,12,12,11,7,8,8,11,11,11,11,11,7,8,4,4,4,4,6,4,4,4,4,6,4,7,6,4,6,6,7,8,4,4,4,8,5,4,4,6,6.739,578.168,580.701,67,4,1,2,1,4,1,4,1,4,1,4,2,4,1,3,2,3,1,17,17,13,5,5,5,3,2,5,3,1,6,1,7,4,2,1,28,1,1,7,2,4,5,1,9.525,476.711,486.824,68,14,13,20,24,0,2,0,6,6,5,5,5,5,5,5,1,4,4,39,41,37,40,40,41,17,11,2,2,2,2,2,2,6,6,6,5,6,2,1, ,3,Portugal, ,1,50,4,1,1,1,1,1,0,0,0,0,1, ,1, , ,5,8,1,1,1,0,0,0,No., , , , , , , , , , , , , , , , , , , , , , , , , , , , , , , , , , , , , , , , , , , , , , , , ,49,2,3,Portugal,5, , , , , , , , , , , , , , , , , , , , , , , , , , , , , , , , , , , , , , , , , , , , , , , , , , , , , , ,1,1,1,1,1,1,4,24.597,51.034,54.914,10,2,16,17,17,17,17,40,40,90,20, , , , , , , , , , , , , , , ,6.115,321.827,323.182,26,12,12,12,14,12,12,11,12,4,7,4,8,6.348,213.075,217.802,24,4,1,4,1,3,2,3,2,3,1,3,1,4,3,4,4,3,1,5,5,5,2,1,4,3,2,7,1,4,2,4,5,2,17.323,290.587,293.06,50,20,24,9,9,9,9,9,5,1,37,37,37,4,Introverts are used to beeing alone and sometimes prefer it. Extroverts always need people around them.,39,39,40,5,5,5,6,5,3,1,100,"Simple things became harder to do. There is fear using public transport, even using masks and less people around. Everything we buy must be clean before use. Lots of time spending in every task, not t"
4/26/2020 8:38:22,4/26/2020 8:59:17,0,100,1255,1,4/26/2020 8:59:18, ,1,1,1,1,1,1,4,16.618,39.312,40.704,11, ,16,18,18,17,18,30,38,90,-5, , , , , , , , , , , , , , , ,5.658,271.18,272.092,55,14,11,15,13,13,12,11,12,7,6,8,14,13,11,12,11,6,7,4,6,6,4,7,4,6,6,6,7,4,4,6,4,7,7,7,7,7,4,6,7,5,4,4,7,2.868,289.168,290.2,63,2,2,2,2,2,1,3,3,2,1,3,3,3,1,2,3,2,3,16,16,12,5,5,5,5,2,3,2,1,6,5,6,4,2,2,26,1,1,2,1,4,4,2,7.537,258.768,260.801,62,13,13,20,21,0,12,3,8,8,1,1,1,1,1,4,1,1,1,37,39,37,39,39,38,16,15,2,2,2,5,5,3,4,4,4,4,4,3,2, ,1, , ,1,55,4,1,1,1,1,1,0,0,0,0,1, ,1, , ,7,10,1,1,1,0,0,0, , , , , , , , , , , , , , , , , , , , , , , , , , , , , , , , , , , , , , , , , , , , , , , , , ,54,1,9, ,4, , , , , , , , , , , , , , , , , , , , , , , , , , , , , , , , , , , , , , , , , , , , , , , , , , , , , , ,1,1,1,1,1,1,4,16.387,41.494,43.175,9,1,15,17,17,18,18,30,37,100,15, , , , , , , , , , , , , , , ,5.019,172.514,173.78,31,13,12,15,12,15,14,11,14,4,4,4,4,4.306,84.4,85.612,18,4,1,4,2,4,1,3,2,2,1,3,2,5,2,2,2,2,4,5,5,5,5,3,4,3,1,6,6,5,1,4,4,2,4.974,161.999,163.358,42,20,21,1,1,1,1,1,5,1,37,39,37,4,Extroverts are more likely to miss social contact with people they are not isolating with.,40,40,40,5,5,2,6,7,1,3,0,I feel that too many people have got used to not being in work while still being paid by  the UK government and are now delaying easing of lockdown measures under the pretence of being afraid to go ba
4/26/2020 8:48:59,4/26/2020 9:04:09,0,100,910,1,4/26/2020 9:04:10, ,1,1,1,1,1,1,4,4.01,35.6,36.658,22, ,17,17,19,18,17,44,40,80,81, , , , , , , , , , , , , , , ,3.407,130.876,132.204,60,13,13,15,13,13,13,13,12,7,8,7,11,11,11,12,11,6,5,4,6,5,7,5,4,5,6,7,5,4,5,5,6,6,6,6,7,4,4,5,7,6,4,4,6,1.822,191.128,192.366,100,3,3,2,3,3,3,4,2,3,3,3,2,3,3,3,3,3,2,17,15,16,4,5,5,4,2,2,4,2,5,6,6,3,2,2,27,1,6,2,2,2,4,2,2.076,187.734,188.419,109,11,13,21,23,2,6,0,8,8,5,5,9,5,5,4,1,3,3,38,38,37,39,40,38,14,15,4,4,5,4,5,3,5,4,5,3,4,3,2, ,1, , ,1,51,4, , , ,1,1, , , ,1,2, ,1, , ,7,86,1, , ,2, , ,Teenangers? Nice typo!, , , , , , , , , , , , , , , , , , , , , , , , , , , , , , , , , , , , , , , , , , , , , , , , ,51,1,9, ,4, , , , , , , , , , , , , , , , , , , , , , , , , , , , , , , , , , , , , , , , , , , , , , , , , , , , , , ,1,1,1,1,1,1,4,4.842,13.546,16.501,7,1,17,17,19,20,17,40,40,76,-19, , , , , , , , , , , , , , , ,1.539,164.829,168.97,32,13,13,15,15,15,15,15,13,5,5,4,4,5.675,49.473,52.993,12,2,3,3,2,2,2,3,4,3,3,3,3,3,3,3,2,2,2,5,5,5,3,1,3,2,1,7,7,7,3,2,4,2,6.801,117.251,118.478,34,21,23,1,4,4,5,1,4,1,37,38,37,4,Remoteness makes it harder for people to be extrovert.,39,39,39,4,4,2,4,4,1,3,0, 
4/26/2020 7:49:23,4/26/2020 8:01:20,0,100,716,1,4/26/2020 8:01:20, ,1,1,1,1,1,1,4,3.304,9.803,10.935,7, ,16,18,17,17,16,40,40,100,-20, , , , , , , , , , , , , , , ,3.307,137.284,137.291,30,13,12,15,14,16,12,12,13,8,8,7,15,14,12,12,11,7,5,4,5,6,4,6,4,6,5,4,6,7,6,4,4,6,7,6,8,4,4,4,7,5,4,5,7,3.396,191.845,193.745,48,2,3,2,1,1,1,4,2,3,2,3,2,3,2,2,3,2,1,17,17,17,3,4,4,5,2,4,3,2,7,3,6,2,2,1,28,1,4,4,2,1,4,3,4.688,149.769,150.861,46,3,11,21,22,3,0,2,7,9,1,1,1,5,1,1,1,2,3,37,39,37,40,41,40,14,13,5,5,4,4,7,7,5,4,6,4,5,2,2, ,2, ,48,1,20,4,1,1,1,1,1,0,0,0,0,4, ,1, , ,9,8,1,1,1,0,0,0, , , , , , , , , , , , , , , , , , , , , , , , , , , , , , , , , , , , , , , , , , , , , , , , , ,20,1,10, ,3, , , , , , , , , , , , , , , , , , , , , , , , , , , , , , , , , , , , , , , , , , , , , , , , , , , , , , ,1,1,1,1,1,1,4,3.796,8.99,9.973,7,1,19,19,20,20,19,40,40,100,5, , , , , , , , , , , , , , , ,1.71,118.72,123.138,26,15,12,15,14,15,14,12,13,4,5,4,4,3.458,38.886,40.802,12,4,2,3,1,3,1,5,2,4,2,5,3,3,2,3,3,4,1,4,5,5,6,2,5,4,2,6,4,7,2,1,5,3,3.035,103.414,104.568,38,20,22,1,1,1,4,4,4,1,37,37,37,4,"Not being able to be around other people is something that social distancing has caused, which extroverted people will notice a bigger change to their lives than introverted people, so they likely wil",40,40,40,5,5,3,4,6,1,1,0,"I feel fine, I'm mostly frustrated at how things are when I need to leave the house for groceries, and that I can't meet with friends physically."
4/26/2020 7:48:05,4/26/2020 7:56:54,0,100,529,1,4/26/2020 7:56:55, ,1,1,1,1,1,1,4,3.512,7.772,9.23,8, ,19,19,20,20,20,48,48,100,0, , , , , , , , , , , , , , , ,4.937,76.146,77.473,35,11,11,16,11,15,15,15,12,6,8,8,11,15,11,13,11,4,6,4,4,4,4,7,4,4,4,4,4,4,6,4,4,6,4,6,8,4,4,6,7,7,4,4,4,2.161,185.528,186.493,51,3,3,3,1,2,1,5,1,1,1,5,1,5,1,5,2,3,1,17,17,13,6,6,6,3,1,5,5,1,7,7,7,4,3,1,28,1,1,3,1,4,2,3,5.152,107.199,107.486,47,13,13,20,24,1,1,1,8,9,1,1,1,1,1,4,1,4,4,39,37,37,40,40,40,14,12,1,1,2,1,4,7,1,1,1,5,5,3,2, ,2, ,18,1,34,3, , , , , , , , , , , ,1, , ,6,10,1,1,1,0,0,0, , , , , , , , , , , , , , , , , , , , , , , , , , , , , , , , , , , , , , , , , , , , , , , , , ,33,1,10, ,4, , , , , , , , , , , , , , , , , , , , , , , , , , , , , , , , , , , , , , , , , , , , , , , , , , , , , , ,1,1,1,1,1,1,4,7.262,11.75,12.694,8,1,19,20,20,20,20,40,40,100,0, , , , , , , , , , , , , , , ,1.714,54.647,56.14,22,11,15,16,13,15,15,15,11,4,4,4,4,7.441,34.729,35.376,12,3,2,1,1,1,1,5,1,2,1,3,1,5,1,3,2,3,1,4,5,5,4,1,5,3,1,7,7,7,1,5,3,2,1.988,78.039,78.683,42,21,23,1,1,1,1,4,4,1,38,38,37,4,People who thrive on interpersonal communication are obviously suffering more than I am.,41,41,41,5,5,4,5,5,1,1,10, 
4/26/2020 7:43:09,4/26/2020 8:00:23,0,100,1033,1,4/26/2020 8:00:23, ,1,1,1,1,1,1,4,11.418,16.039,20.709,7, ,18,18,20,20,19,32,40,88,37, , , , , , , , , , , , , , , ,2.518,114.664,115.709,39,12,12,12,15,14,13,12,12,8,8,8,11,11,11,11,11,7,7,4,4,4,4,7,4,5,5,4,6,4,7,4,5,7,6,4,7,6,4,5,6,7,4,6,5,44.352,188.926,189.961,64,3,4,2,4,2,3,4,2,5,4,5,2,5,2,4,2,4,2,16,17,12,4,4,4,7,2,4,4,2,7,7,6,4,3,2,28,2,4,4,3,1,3,4,8.356,459.187,460.741,72,14,14,21,23,5,1.2,1.1,5,7,4,4,4,1,1,5,1,5,3,38,38,38,38,38,38,16,15,2,2,1,5,4,2,5,6,6,4,4,2,2, ,2, ,31,1,41,4,1,1,1,1,1,0,0,0,0,3, ,1, , ,9,50,1,1,1,0,0,0, , , , , , , , , , , , , , , , , , , , , , , , , , , , , , , , , , , , , , , , , , , , , , , , , ,41,1,10, ,3, , , , , , , , , , , , , , , , , , , , , , , , , , , , , , , , , , , , , , , , , , , , , , , , , , , , , , ,1,1,1,1,1,1,4,3.678,9.067,10.445,9,1,17,18,20,19,17,34,40,50,-16, , , , , , , , , , , , , , , ,4.635,108.86,110.28,23,11,11,11,11,16,11,12,11,5,5,5,5,2.815,42.65,45.486,17,2,4,2,4,2,1,3,3,3,3,3,4,5,3,5,2,5,1,2,2,2,7,2,4,4,2,7,4,6,1,1,2,3,2.397,97.451,98.172,50,22,21,4,4,4,1,4,9,1,40,38,38,3,each struggles but in different ways,37,37,37,2,3,3,5,5,1,3,0,mainly bored at the feeling of lack of progression
4/26/2020 8:30:07,4/26/2020 8:42:14,0,100,726,1,4/26/2020 8:42:14, ,1,1,1,1,1,1,4,38.808,57.382,58.279,7, ,18,19,20,20,21,40,45,70,-40, , , , , , , , , , , , , , , ,6.697,188.123,191.522,39,14,14,12,12,15,13,16,11,1,8,8,13,14,11,11,11,5,5,4,5,6,4,5,4,4,5,5,5,4,4,5,4,7,5,5,6,4,4,5,5,4,4,4,5,4.096,113.478,114.62,45,4,2,4,1,4,1,1,1,1,1,2,2,4,3,4,1,2,1,16,16,14,1,5,2,3,4,4,4,1,5,2,2,2,5,1,27,1,2,2,2,1,2,2,4.68,125.224,125.668,46,2,3,20,21,5,0,0,10,10,9,5,5,5,1,4,5,3,2,37,39,37,39,39,40,14,16,4,2,5,5,6,6,2,1,1,2,2,1,2, ,2, ,22,1,50,4,1,1,1,1,1,0,0,0,1,4,1, , , ,9,5,1,1,1,0,0,0,No, , , , , , , , , , , , , , , , , , , , , , , , , , , , , , , , , , , , , , , , , , , , , , , , ,49,1,10, ,4, , , , , , , , , , , , , , , , , , , , , , , , , , , , , , , , , , , , , , , , , , , , , , , , , , , , , , ,1,1,1,1,1,1,4,9.656,20.818,21.676,7,1,17,20,19,18,18,40,45,70,-40, , , , , , , , , , , , , , , ,2.364,108.206,109.104,36,14,15,12,15,15,15,14,14,6,4,6,4,6.663,45.015,46.318,12,5,3,4,2,4,1,1,2,2,2,2,3,4,5,3,2,1,3,2,3,2,2,1,4,4,1,6,2,6,3,1,2,3,3.98,94.441,95.144,34,20,22,9,9,9,9,4,4,1,38,39,37,4,Introverts are more likely to be able to handle being by themselves,39,38,40,5,4,2,8,4,1,1,0,No
4/26/2020 11:59:20,4/26/2020 12:14:09,0,100,888,1,4/26/2020 12:14:09, ,1,1,1,1,1,1,4,16.138,25.626,27.313,7, ,18,19,20,18,17,30,40,90,90, , , , , , , , , , , , , , , ,20.736,196.442,198.08,28,11,12,12,12,12,12,11,11,8,7,7,11,12,11,11,11,7,7,4,4,7,5,7,4,4,6,4,7,4,7,5,4,7,5,7,7,4,4,7,6,6,4,5,6,8.198,198.183,199.119,47,4,1,5,1,4,3,4,1,3,1,4,1,3,2,4,3,4,1,17,17,17,6,6,6,5,2,5,4,1,6,4,6,3,3,1,27,4,7,6,1,2,3,1,7.706,181.978,183.054,43,11,12,22,23,3,0,0,9,9,4,1,1,1,1,4,1,3,2,37,37,37,41,41,41,16,15,3,4,4,2,4,4,6,6,6,6,6,5,2, ,1, , ,1,49,4,1,1,1,1,1,0,0,1,2,0, ,1, , ,7,10,1,1,1,2,3,2,no, , , , , , , , , , , , , , , , , , , , , , , , , , , , , , , , , , , , , , , , , , , , , , , , ,49,1,9, ,4, , , , , , , , , , , , , , , , , , , , , , , , , , , , , , , , , , , , , , , , , , , , , , , , , , , , , , ,1,1,1,1,1,1,4,4.287,16.854,18.791,7,1,19,19,20,20,18,36,35,95,90, , , , , , , , , , , , , , , ,4.508,144.532,146.245,34,11,11,12,11,11,11,11,11,4,5,4,4,11.132,52.1,53.142,12,4,1,4,1,2,2,3,3,3,1,4,1,4,2,3,2,4,1,5,5,5,5,2,4,4,1,6,6,6,1,2,4,1,5.904,123.185,123.985,33,21,23,1,1,1,1,1,1,1,37,37,37,4,They need people around them most of the time,41,41,41,6,5,5,2,2,1,3,20,I dont really have any at the moment
4/26/2020 9:55:40,4/26/2020 10:10:22,0,100,881,1,4/26/2020 10:10:23, ,1,1,1,1,1,1,4,45.939,66.059,68.935,11, ,15,17,17,16,16,30,30,71,-30, , , , , , , , , , , , , , , ,4.564,198.977,200.879,36,15,15,15,14,16,15,15,14,7,6,8,15,14,14,12,14,6,5,5,4,6,5,6,6,6,6,6,7,7,6,6,6,6,7,5,6,7,7,6,6,7,5,6,5,4.83,165.018,168.697,47,4,3,3,3,3,3,2,4,3,1,4,4,4,3,3,3,3,4,15,16,15,3,3,4,2,4,2,4,3,3,4,2,2,5,2,25,4,5,4,1,2,2,3,14.109,132.216,134.189,57,12,11,21,23,5,.5,0,7,7,9,4,5,5,5,5,4,3,4,39,38,37,40,40,40,13,12,4,5,4,4,3,4,4,4,3,4,3,3,2, ,3,Poland, ,1,23,4, , , , ,1, , , , ,4, ,1, , ,5,70,1, , ,3, , , , , , , , , , , , , , , , , , , , , , , , , , , , , , , , , , , , , , , , , , , , , , , , , , , ,22,1,3,Poland,2, , , , , , , , , , , , , , , , , , , , , , , , , , , , , , , , , , , , , , , , , , , , , , , , , , , , , , ,1,1,1,1,1,1,4,1.9,12.26,13.496,15,1,16,18,17,18,18,20,27,61,-23, , , , , , , , , , , , , , , ,2.462,106.826,107.545,39,16,14,16,14,15,14,15,15,4,4,4,8,3.894,36.825,37.263,21,5,3,4,3,4,2,2,2,3,3,4,3,3,4,2,2,3,3,4,3,3,2,4,3,4,3,3,4,2,2,3,4,3,3.21,59.364,60.345,69,23,21,9,9,9,10,9,9,5,39,39,39,4,It's harder for people who are used to meet others,41,37,37,1,4,4,5,5,1,1,0, 
4/27/2020 2:25:26,4/27/2020 2:35:21,0,100,594,1,4/27/2020 2:35:21, ,1,1,1,1,1,1,4,6.024,13.036,13.903,8, ,15,16,17,17,16,45,40,85,83, , , , , , , , , , , , , , , ,3.758,89.82,90.873,25,11,11,12,13,12,13,11,11,8,8,8,16,13,15,11,15,5,7,6,4,6,7,4,5,6,4,4,6,6,6,4,4,7,4,5,7,6,6,6,7,5,5,5,4,4.431,145.388,146.401,45,2,2,2,3,2,1,4,1,2,2,4,3,2,2,3,2,3,3,17,17,13,6,6,5,7,5,5,4,1,6,5,5,2,3,3,27,2,5,2,2,2,2,1,4.807,117.887,123.393,45,14,13,21,23,4,4,0,8,8,1,1,1,1,1,4,1,5,5,37,37,37,38,37,41,17,12,6,5,4,7,6,6,4,3,3,3,3,1,2, ,1, , ,1,50,4, , , ,1,1, , , ,3,3,1, , , ,9,20,1,1,1,0,0,0, , , , , , , , , , , , , , , , , , , , , , , , , , , , , , , , , , , , , , , , , , , , , , , , , ,49,1,9, ,5, , , , , , , , , , , , , , , , , , , , , , , , , , , , , , , , , , , , , , , , , , , , , , , , , , , , , , ,1,1,1,1,1,1,4,4.143,12.724,14.093,7,1,15,15,15,20,15,40,40,81,90, , , , , , , , , , , , , , , ,2.745,83.829,86.088,20,13,15,13,15,15,15,13,13,5,6,7,7,3.837,25.136,26.216,12,3,4,4,4,2,2,4,3,3,4,3,3,3,3,4,2,3,4,4,4,5,2,2,4,3,3,3,3,4,3,4,2,4,2.059,43.592,45.011,37,23,22,9,5,4,5,5,9,9,39,40,40,4,used to meeting people,38,39,38,3,4,4,6,5,1,3,7,being stuck inside
4/26/2020 7:54:49,4/26/2020 8:27:22,0,100,1953,1,4/26/2020 8:27:23, ,1,1,1,1,1,1,4,7.974,131.541,132.842,10, ,16,19,16,16,15,12,20,30,-55, , , , , , , , , , , , , , , ,4.025,268.422,271.766,33,15,13,15,16,16,15,15,12,8,7,7,12,12,11,11,11,7,5,4,4,4,4,6,4,6,5,4,7,7,5,4,4,7,8,7,8,5,4,5,7,5,6,4,8,11.782,458.047,459.5,50,1,3,1,1,1,2,2,4,2,2,2,3,4,2,3,3,4,3,17,17,15, , , ,5,3,2,2,5,5,6,5,2,5,2,27,1,3,6,3,1,3,2,16.471,412.152,412.167,48,3,12,21,21,5,2,0,5,6,5,4,4,5,4,9,1,2,2,40,38,39,38,38,37,15,12,1,1,2,4,3,1,5,4,6,3,3,2,2, ,3,Poland, ,1,27,4, , , , ,1, , , , ,1, , ,1, ,5,100, , , , , , , , , , , , , , , , , , , , , , , , , , , , , , , , , , , , , , , , , , , , , , , , , , , , , , , ,26,1,3,Poland,4, , , , , , , , , , , , , , , , , , , , , , , , , , , , , , , , , , , , , , , , , , , , , , , , , , , , , , ,1,1,1,1,1,1,4,2.569,149.409,150.601,9,1,18,18,19,20,17,10,15,65,20, , , , , , , , , , , , , , , ,88.164,328.611,333.238,27,16,14,13,14,16,13,15,12,5,8,5,7,27.197,127.771,129.727,13,1,4,2,2,1,2,3,3,2,3,2,4,4,3,3,2,4,1, , , ,4,3,2,3,4,5,4,6,3,1,3,2,8.58,313.364,313.375,35,21,22,5,4,5,4,4,5,4,40,37,38,4,Introverts are more used to spending longer periods of time alone. The same can't be said about extroverts who need more contact with other people. That doesn't necessarily mean that all introverts ar,39,38,38,5,4,5,5,5,1,1,50, 
4/28/2020 0:20:45,4/28/2020 0:34:10,0,100,804,1,4/28/2020 0:34:10, ,1,1,1,1,1,1,4,5.754,15.297,16.09,7, ,15,15,16,16,18,15,30,70,-60, , , , , , , , , , , , , , , ,3.829,150.372,151.513,29,14,11,15,17,17,16,17,12,7,8,8,12,12,11,11,11,6,5,4,4,5,8,5,4,5,6,4,5,7,5,5,5,5,5,8,7,6,4,5,5,5,5,4,5,33.385,214.787,219.616,50,4,3,2,4,4,3,3,2,3,3,4,3,4,5,2,4,2,3,17,17,15,4,4,5,1,4,1,2,5,1,1,2,2,5,3,28,1,7,7,3,1,4,3,13.585,183.813,184.447,47,3,11,20,21,0,0,0,5,6,9,10,10,10,5,5,10,4,3,40,38,39,41,40,40,16,13,6,5,6,4,3,7,2,2,3,4,4,4,1, ,3,Spain, ,1,24,4, , , , ,1, , , , ,1, ,1, , ,4,10,1,1,1,0,0,0, , , , , , , , , , , , , , , , , , , , , , , , , , , , , , , , , , , , , , , , , , , , , , , , , ,23,2,8, ,4, , , , , , , , , , , , , , , , , , , , , , , , , , , , , , , , , , , , , , , , , , , , , , , , , , , , , , ,1,1,1,1,1,1,4,5.283,10.54,12.039,7,1,16,15,15,17,16,30,30,80,-50, , , , , , , , , , , , , , , ,2.36,110.864,111.928,26,14,13,17,17,15,15,15,13,8,8,8,8,4.425,61.513,65.299,14,3,2,3,4,3,3,3,4,3,3,3,2,4,4,3,4,1,2,3,4,4,1,5,1,1,5,1,1,1,4,1,3,3,5.499,114.619,115.354,37,23,22,10,10,10,10,9,9,10,40,38,40,4,"I'm quite introvert and I really enjoy not having to see people every day, talking to them through mic is easier than face to face. Most times I have a question in the office I try to solve it myself",38,38,39,3,3,4,1,1,1,2,100, 
4/28/2020 19:02:01,4/28/2020 19:12:55,0,100,653,1,4/28/2020 19:12:55, ,1,1,1,1,1,1,4,2.34,8.289,11.159,7, ,17,18,17,17,17,40,40,60,-54, , , , , , , , , , , , , , , ,13.454,123.952,124.936,50,15,14,13,14,15,15,14,14,5,6,5,14,14,14,14,14,5,6,6,5,5,7,6,6,7,6,6,6,6,6,5,7,6,6,6,7,6,5,6,7,7,6,5,6,8.062,136.431,138.92,64,3,5,2,3,2,3,4,4,3,3,2,3,4,3,3,4,2,3,16,15,13,3,4,3,4,3,2,3,3,4,3,4,4,4,3,26,2,2,3,4,2,2,4,20.356,151.399,152.803,59,13,11,22,21,0,0,5,9,8,10,10,10,10,5,4,9,4,4,41,38,40,38,38,38,14,13,4,4,4,4,4,4,3,3,4,3,4,2,2, ,3,Canada, ,1,23,3, , , , , , , , , , ,1, , , ,9,100,1,1,1,0,0,0, , , , , , , , , , , , , , , , , , , , , , , , , , , , , , , , , , , , , , , , , , , , , , , , , ,22,1,1, ,3, , , , , , , , , , , , , , , , , , , , , , , , , , , , , , , , , , , , , , , , , , , , , , , , , , , , , , ,1,1,1,1,1,1,4,4.149,11.123,13.355,10,1,16,17,17,18,17,40,40,40,-36, , , , , , , , , , , , , , , ,3.775,90.831,92.642,48,14,13,13,13,14,14,13,14,5,7,7,7,.954,15.746,19.227,18,3,4,1,2,3,4,3,3,3,3,3,3,3,3,2,2,2,3,3,4,4,2,3,3,2,3,4,4,3,4,2,2,4,186.619,263.415,265.515,41,22,21,5,9,5,5,5,9,5,39,38,40,4,They are no longer able to obtain the same level of social contact,40,39,38,3,3,2,5,4,1,2,10, 
4/26/2020 7:45:17,4/26/2020 7:57:32,0,100,734,1,4/26/2020 7:57:32, ,1,1,1,1,1,1,4,14.086,21.247,22.387,7, ,17,18,16,17,17,40,40,40,-62, , , , , , , , , , , , , , , ,6.082,123.077,124.717,25,13,13,15,12,16,13,12,15,5,7,6,17,17,15,14,12,8,7,4,4,4,5,8,4,7,4,4,7,8,7,4,6,8,7,7,7,8,7,4,5,7,4,7,6,3.697,155.567,157.284,45,2,5,2,3,2,4,2,4,3,4,2,4,2,4,1,4,2,1,17,17,14,5,4,5,1,4,2,2,3,5,1,3,4,5,2,28,1,2,2,4,1,1,5,4.444,230.574,231.87,45,3,11,22,22,3,0,0,6,8,9,9,9,10,10,10,5,2,2,40,38,40,38,37,38,15,16,5,4,5,5,6,6,3,2,2,3,3,1,2, ,2, ,44,1,37,4,1,1,1,1,1,0,0,1,1,1, ,1, , ,9,50,1,1,1,0,0,0,Not so far., , , , , , , , , , , , , , , , , , , , , , , , , , , , , , , , , , , , , , , , , , , , , , , , ,37,1,10, ,4, , , , , , , , , , , , , , , , , , , , , , , , , , , , , , , , , , , , , , , , , , , , , , , , , , , , , , ,1,1,1,1,1,1,4,10.076,17.945,19.451,7,2,16,17,17,16,15,40,40,40,-40, , , , , , , , , , , , , , , ,3.326,121.866,124.068,29,15,12,17,15,15,12,12,16,7,8,7,6,2.656,38.586,40.398,14,3,5,1,1,2,4,3,3,4,3,2,4,3,3,1,1,2,2,5,5,5,2,4,3,3,4,5,2,2,3,1,3,4,2.135,95.091,96.145,35,23,21,5,5,5,9,9,10,5,39,38,40,3,"Being introverted doesn't mean you don't like people. It just means that it takes a bit to recharge after being around people. We all need to be around people to some degree. We're social creatures, e",39,38,38,2,2,1,5,5,1,1,100,"Honestly, I'm a bit over the whole lockdown / stay away from everybody thing. I'm frustrated with someone telling me what to do. I'm also frustrated with my lack of productivity over the past week. I"
4/26/2020 8:41:02,4/26/2020 8:56:48,0,100,945,1,4/26/2020 8:56:48, ,1,1,1,1,1,1,4,3.71,19.139,24.525,13, ,18,18,19,19,19,50,40,80,22, , , , , , , , , , , , , , , ,1.852,116.823,117.623,61,12,12,15,15,14,13,12,15,8,7,5,14,15,13,13,12,7,7,7,6,7,7,6,5,7,4,7,7,7,6,6,7,7,7,6,7,8,4,5,7,5,4,4,7,6.34,269.653,270.478,82,5,5,2,5,3,4,3,5,4,4,4,4,3,5,2,3,3,2,16,13,15,3,4,4,3,4,3,3,4,5,3,6,4,5,4,27,6,3,3,1,5,5,1,1.895,255.342,256.552,84,13,13,24,21,5,4,2,8,7,9,5,10,9,5,10,5,4,3,41,41,40,39,39,38,16,13,4,5,3,6,3,5,5,4,5,4,4,1,2, ,1, , ,1,40,4,1,1,1,1,1,0,0,1,0,2,1, , , ,6,90,1,1,1,0,0,0, , , , , , , , , , , , , , , , , , , , , , , , , , , , , , , , , , , , , , , , , , , , , , , , , ,39,1,9, ,5, , , , , , , , , , , , , , , , , , , , , , , , , , , , , , , , , , , , , , , , , , , , , , , , , , , , , , ,1,1,1,1,1,1,4,2.292,24.156,25.758,17,2,17,18,19,19,18,45,45,71,-24, , , , , , , , , , , , , , , ,4.52,711.307,712.114,67,13,15,15,16,15,15,15,16,7,7,8,7,7.926,54.996,55.782,20,2,4,2,2,2,4,4,3,3,2,2,4,2,5,3,4,2,2,5,4,3,4,4,2,3,4,6,3,4,4,2,4,4,332.895,639.59,640.321,60,22,21,9,5,5,9,9,10,4,41,41,40,4,"I'm an extrovert, my wife is an introvert. I'm really struggling. She's fine",38,40,40,4,3,3,7,7,1,3,11,Trying to work with a 5 year old around and trying to balance home schooling and work (tantrums from everyone) is impossible. I find it impossible to try and concentrate. Lockdown with a child is tort
4/27/2020 6:12:32,4/27/2020 6:19:40,0,100,427,1,4/27/2020 6:19:41, ,1,1,1,1,1,1,4,9.157,15.152,16.799,7, ,19,19,20,19,19,35,50,100,-14, , , , , , , , , , , , , , , ,1.983,68.267,68.913,33,12,11,16,11,15,11,12,15,8,8,8,12,11,11,11,11,8,7,4,4,6,7,4,4,5,6,4,6,5,7,5,4,7,4,7,8,4,4,4,7,6,4,4,4,1.623,88.941,90.148,61,4,1,4,2,4,1,4,3,3,1,3,1,5,2,3,1,4,5,17,17,17,4,5,5,5,2,4,4,1,7,7,7,3,5,3,27,1,1,4,2,3,4,1,2.793,91.008,91.261,64,11,12,21,22,.5,1,4,7,6,1,1,1,1,1,1,1,2,2,37,38,37,40,40,41,16,12,2,2,4,5,6,7,5,5,6,4,4,5,2, ,2, ,5,1,32,4, , , , ,1, , , , ,1, ,1, , ,5,15,1, , ,0, , , , , , , , , , , , , , , , , , , , , , , , , , , , , , , , , , , , , , , , , , , , , , , , , , , ,31,1,10, ,4, , , , , , , , , , , , , , , , , , , , , , , , , , , , , , , , , , , , , , , , , , , , , , , , , , , , , , ,1,1,1,1,1,1,4,4.843,7.242,9.066,7,1,17,19,19,19,19,40,52,71,-9, , , , , , , , , , , , , , , ,4.413,71.732,72.672,30,15,12,15,11,15,12,13,11,5,5,4,5,92.636,111.232,112.413,18,4,1,4,1,4,1,2,1,3,1,4,2,4,1,4,3,3,2,3,4,4,6,2,4,4,1,7,5,6,1,3,4,1,1.127,153.367,153.558,66,22,23,4,1,4,4,1,4,4,37,38,37,4,Extroverts love going out to socialize so this pandemic will hit them the hardest,40,40,41,6,5,5,5,5,1,3,0, 
4/26/2020 8:17:39,4/26/2020 8:32:10,0,100,870,1,4/26/2020 8:32:10, ,1,1,1,1,1,1,4,6.392,12.331,13.643,10, ,17,19,20,20,20,49,38,82,16, , , , , , , , , , , , , , , ,.911,474.575,474.641,196,12,11,15,15,11,11,12,11,8,8,8,11,11,11,11,11,8,7,4,5,7,5,6,4,4,7,4,6,5,7,8,5,7,6,7,8,5,4,5,8,6,4,7,6,1.403,84.952,85.617,69,4,2,5,2,4,1,4,2,4,1,4,1,5,4,5,2,4,2,17,17,17,6,6,5,5,3,4,3,2,7,7,7,4,2,1,26,1,6,6,2,2,4,2,.97,78.717,79.787,66,12,14,20,23,2,0,0,8,7,5,1,4,4,1,4,5,3,4,37,38,37,40,41,41,17,16,4,4,4,4,5,4,6,6,6,6,6,4,1, ,1, , ,1,34,4, , , , ,1, , , , ,1, ,1, , ,9,8, , ,1, , ,8,The sliders for time were really fiddly to try and get the time to add up. I tried for 10 mins then gave up!, , , , , , , , , , , , , , , , , , , , , , , , , , , , , , , , , , , , , , , , , , , , , , , , ,34,2,9, ,6, , , , , , , , , , , , , , , , , , , , , , , , , , , , , , , , , , , , , , , , , , , , , , , , , , , , , , ,1,1,1,1,1,1,4,3.322,15.599,16.912,13,1,20,19,20,20,20,43,38,91,0, , , , , , , , , , , , , , , ,1.745,85.575,86.348,47,12,11,12,12,12,12,12,11,5,5,4,5,2.101,21.081,21.906,18,4,1,4,2,4,1,4,2,3,2,4,1,4,3,4,3,4,1,5,6,6,5,4,3,3,1,6,6,6,1,2,4,4,2.098,53.955,55.102,45,21,23,5,1,4,4,1,1,4,37,38,37,4,Less socialising is harder for extraverts,40,40,40,5,5,5,5,6,1,3,1, 
4/26/2020 7:49:16,4/26/2020 8:47:45,0,100,3509,1,4/26/2020 8:47:46, ,1,1,1,1,1,1,4,29.333,41.584,42.934,10, ,16,17,19,18,16,34,40,3,70, , , , , , , , , , , , , , , ,7.232,558.219,560.719,45,13,12,15,13,13,13,12,12,8,8,7,12,12,11,11,11,8,6,4,4,6,4,6,4,4,6,4,5,4,6,6,4,5,4,6,7,4,4,6,7,6,4,4,4,461.186,1967.874,2078.813,52,3,2,3,1,2,1,4,2,3,1,3,1,5,2,3,1,3,1,16,16,16,5,4,5,6,3,4,3,2,5,4,4,3,4,1,28,2,2,3,1,2,3,2,9.987,201.446,202.198,56,3,11,21,22,10,5,0,5,9,4,4,5,4,1,1,4,5,5,38,38,37,40,40,39,15,16,3,3,2,4,5,5,6,6,6,5,5,4,2, ,2, ,10,1,32,4,1, , , , ,1, , , , , ,1, , ,6,20,1,1,1,4,0,0,best of luck!, , , , , , , , , , , , , , , , , , , , , , , , , , , , , , , , , , , , , , , , , , , , , , , , ,31,1,10, ,5, , , , , , , , , , , , , , , , , , , , , , , , , , , , , , , , , , , , , , , , , , , , , , , , , , , , , , ,1,1,1,1,1,1,4,15.082,19.987,20.9,9,1,16,16,17,17,17,40,40,70,-40, , , , , , , , , , , , , , , ,1.621,88.542,90.201,26,12,12,15,14,13,12,13,11,4,4,6,4,3.849,48.85,50.468,21,3,3,2,1,3,1,2,3,2,1,2,3,4,3,2,1,3,3,3,3,3,5,4,2,2,3,4,3,3,1,2,3,4,3.26,94.34,95.25,46,22,21,5,4,5,4,1,1,4,39,37,37,3,"I think it doesn't matter, everyone is affected in some way or the other.",39,39,39,2,2,2,5,5,1,2,50,"I am really frustrated about being at home most of the time. I feel tired,"
4/26/2020 7:46:05,4/26/2020 7:57:30,0,100,685,1,4/26/2020 7:57:31, ,1,1,1,1,1,1,4,23.607,29.7,40.762,8, ,19,20,20,21,19,40,40,95,40, , , , , , , , , , , , , , , ,3.288,131.442,134.936,39,12,12,12,12,11,12,11,15,8,8,8,12,12,13,11,11,8,7,4,4,6,4,7,4,4,5,4,6,4,8,7,5,6,4,6,7,4,4,5,8,7,4,5,4,8.8,154.845,155.455,57,5,1,5,1,5,1,5,2,4,1,4,1,4,1,5,3,4,1,17,17,16,6,5,5,7,5,4,4,1,7,7,7,4,1,2,28,1,7,5,1,4,5,2,3.889,130.196,130.705,60,13,13,21,23,5,0,6,9,8,1,1,1,1,1,1,4,4,5,37,39,37,40,40,41,17,15,3,6,1,7,4,4,6,6,7,6,6,4,2, ,3,Italy, ,1,32,4, , ,1, ,1, , ,2, ,30, ,1, , ,7,20,1, , ,2, , , , , , , , , , , , , , , , , , , , , , , , , , , , , , , , , , , , , , , , , , , , , , , , , , , ,32,1,6, ,5, , , , , , , , , , , , , , , , , , , , , , , , , , , , , , , , , , , , , , , , , , , , , , , , , , , , , , ,1,1,1,1,1,1,4,3.891,29.546,31.504,8,1,20,21,21,20,20,35,35,85,40, , , , , , , , , , , , , , , ,2.794,89.59,90.315,32,11,13,12,11,12,11,11,13,4,4,6,4,7.927,52.751,53.022,15,4,2,4,1,4,1,5,1,4,1,5,1,5,2,5,5,5,1,6,6,5,6,1,5,4,1,7,7,7,1,4,5,2,3.047,92.153,92.574,45,21,24,1,1,1,1,1,4,1,37,39,37,4,"Introverts are used to this situation, extroverts are not.",41,40,41,6,6,4,3,6,3,1,10, 
4/26/2020 7:49:38,4/26/2020 8:10:13,0,100,1235,1,4/26/2020 8:10:14, ,1,1,1,1,1,1,4,25.335,38.287,40.786,7, ,17,19,19,18,20,37,37,80,0, , , , , , , , , , , , , , , ,12.297,351.104,352.893,37,11,12,13,12,13,12,11,12,7,8,8,11,11,11,11,11,4,4,4,4,5,4,6,4,4,4,4,7,4,5,4,4,6,5,4,8,4,4,4,5,4,4,4,4,21.366,224.719,227.079,46,2,1,2,2,1,1,3,1,1,1,4,1,5,1,4,1,5,1,16,17,17, , , ,6,1,4,4,1,7,7,7,4,3,1,28,1,1,5,2,2,3,2,13.212,253.083,253.11,44,13,13,21,23,1,3,4,7,8,1,1,1,1,1,1,1,2,2,37,37,37,39,38,40,16,12,2,2,2,2,2,5,4,2,5,5,5,4,2, ,1, , ,1,46,4,1,1,1,1,1,0,0,0,0,2, ,1, , ,8,100,1,1,1,0,0,0,No comments, , , , , , , , , , , , , , , , , , , , , , , , , , , , , , , , , , , , , , , , , , , , , , , , ,46,1,9, ,4, , , , , , , , , , , , , , , , , , , , , , , , , , , , , , , , , , , , , , , , , , , , , , , , , , , , , , ,1,1,1,1,1,1,4,15.159,32.584,34.202,8,1,17,19,19,19,18,23,23,70,-30, , , , , , , , , , , , , , , ,4.04,329.078,331.315,52,11,12,12,15,12,12,11,12,4,4,4,4,4.178,85.748,87.791,13,3,1,3,1,3,1,3,1,2,1,3,1,4,1,2,1,3,1, , , ,5,2,4,3,1,7,7,7,2,2,3,3,6.881,188.274,188.3,32,21,23,1,1,1,1,1,4,1,37,37,37,4,"I don't think it's easy for anyone, but the lack of social contact is generally harder for extroverts to handle in my experience.",38,38,40,5,5,5,5,5,1,3,0,My single biggest frustration has been the UK government daily briefings. They delivered little useful information after the first few days and appear to mostly a PR exercise for defending criticism o
4/27/2020 3:19:48,4/27/2020 3:40:52,0,100,1263,1,4/27/2020 3:40:53, ,1,1,1,1,1,1,4,3.619,16.786,19.482,7, ,18,18,20,20,20,30,30,100,30, , , , , , , , , , , , , , , ,6.531,97.751,98.487,35,13,13,13,15,15,13,15,15,1,8,8,17,17,14,17,15,6,7,4,4,6,7,4,5,5,6,4,6,4,4,6,7,8,8,7,8,4,4,4,8,4,4,4,8,3.629,112.608,113.204,54,5,1,5,1,5,1,5,1,4,1,5,1,5,1,5,1,5,1,17,17,17,4,4,4,7,1,4,4,1,1,1,5,4,4,2,28,1,6,6,1,1,2,2,5.024,125.748,126.384,60,2,3,20,24,0,0,0,7,7,9,5,5,9,9,4,5,3,3,41,37,37,40,38,38,16,16,1,4,1,4,4,1,4,4,4,6,6,6,2, ,1, , ,1,24,3, , , , , , , , , , , ,1, , ,4,100,1,1,1,0,0,0, , , , , , , , , , , , , , , , , , , , , , , , , , , , , , , , , , , , , , , , , , , , , , , , , ,23,1,9, ,3, , , , , , , , , , , , , , , , , , , , , , , , , , , , , , , , , , , , , , , , , , , , , , , , , , , , , , ,1,1,1,1,1,1,4,2.427,6.016,8.051,8,4,18,18,20,20,20,0,0,100,50, , , , , , , , , , , , , , , ,4.756,58.335,59.734,26,11,11,11,15,15,11,11,11,4,4,4,4,4.508,28.473,29.025,17,3,1,3,1,3,1,3,1,3,1,3,1,4,1,3,1,3,1,4,4,5,7,1,4,4,1,6,6,6,2,2,2,2,2.789,117.886,118.418,43,20,24,1,1,1,1,1,1,1,37,37,37,4,"I imagine it's harder for Extroverts to cope with being cooped up indoors all day because they're used to being out and about, at least moreso than introverts.",40,40,40,5,5,5,5,5,1,2,0, 
4/26/2020 8:39:29,4/26/2020 9:28:59,0,100,2970,1,4/26/2020 9:29:00, ,1,1,1,1,1,1,4,6.97,12.57,16.649,7, ,18,19,19,19,17,45,38,90,-15, , , , , , , , , , , , , , , ,11.483,1493.962,1533.035,59,13,12,13,12,14,12,11,15,8,8,8,16,14,14,12,11,8,7,4,4,5,5,7,4,4,6,4,6,5,6,6,4,7,5,6,8,5,5,5,8,6,4,5,6,366.876,635.682,637.115,49,3,1,5,3,3,3,4,3,4,4,4,4,2,5,2,5,3,1,13,15,13,4,4,3,2,4,3,2,4,2,2,2,4,2,1,27,1,4,3,4,1,2,3,23.894,367.333,376.528,45,11,12,21,23,3,3,3,6,6,9,5,5,10,9,5,4,4,4,37,37,37,39,38,38,17,13,6,4,6,2,5,6,4,1,5,3,3,5,2, ,1, , ,1,44,4,1,1,1,1,1,0,0,1,0,1, ,1, , ,7,10,1,1,1,0,0,0,No Comments, , , , , , , , , , , , , , , , , , , , , , , , , , , , , , , , , , , , , , , , , , , , , , , , ,44,1,9, ,4, , , , , , , , , , , , , , , , , , , , , , , , , , , , , , , , , , , , , , , , , , , , , , , , , , , , , , ,1,1,1,1,1,1,4,67.272,113.686,142.794,7,1,19,18,19,19,18,45,39,90,-20, , , , , , , , , , , , , , , ,14.087,198.629,201.713,26,13,12,14,12,12,12,12,13,4,5,4,5,6.954,79.194,87.94,12,4,1,4,4,1,2,4,4,4,2,4,4,2,5,3,5,3,1,3,4,3,3,3,3,3,3,2,2,4,4,1,2,3,12.527,213.455,215.251,38,22,22,10,5,9,9,10,4,4,39,37,38,4,"Because extroverts need to be around people, they enjoy it. Whereas introverts do not. Also extroverts are out and around people a lot more than introverts and so this is a bigger change in their rout",38,38,38,2,2,2,5,3,1,3,0,"I feel OK. But my main source of frustration is how much pressure has been put on me an work. I am expected to do more work than normal at the moment, working in an environment that does not allow me"
4/26/2020 8:11:14,4/26/2020 8:25:47,0,100,872,1,4/26/2020 8:25:47, ,1,1,1,1,1,1,4,39.344,51.694,53.234,8, ,16,19,19,19,19,32,32,100,0, , , , , , , , , , , , , , , ,6.946,153.625,155.72,37,11,12,16,16,16,16,12,11,8,8,8,11,11,11,11,11,6,4,4,4,6,4,6,4,4,6,4,6,4,6,6,4,6,4,4,8,4,4,4,8,6,4,4,4,3.915,173.637,178.129,51,3,3,2,1,2,1,4,1,3,1,4,1,5,1,2,1,2,1,17,17,17,5,5,5,2,1,5,4,1,6,6,6,4,4,2,28,1,4,4,3,1,4,4,5.958,195.418,196.094,52,13,14,20,24,0,3,0,9,10,1,1,1,1,4,1,1,1,1,40,37,37,41,39,37,16,16,4,5,4,4,4,4,2,5,5,6,6,2,1, ,2, ,17,1,48,4,1,1,1,1,1,0,0,0,0,1,1, , , ,9,100,1,1,1,0,0,0, , , , , , , , , , , , , , , , , , , , , , , , , , , , , , , , , , , , , , , , , , , , , , , , , ,47,2,10, ,5, , , , , , , , , , , , , , , , , , , , , , , , , , , , , , , , , , , , , , , , , , , , , , , , , , , , , , ,1,1,1,1,1,1,4,3.61,11.489,13.37,7,1,19,19,20,20,17,40,40,100,20, , , , , , , , , , , , , , , ,2.116,121.089,121.956,32,12,14,16,16,16,16,12,11,6,6,4,4,4.144,45.901,46.774,15,1,4,1,1,4,1,4,1,4,4,4,3,5,2,2,2,2,3,5,5,5,2,2,5,4,1,4,4,6,4,1,4,4,3.124,112.653,113.801,40,20,24,1,1,1,1,1,1,1,40,39,39,4,Extroverts are used to seeing people and talking to them in person.  Not being able to go out and be around people is more difficult for them.,38,37,37,5,5,4,5,5,1,1,0, 
4/26/2020 13:35:22,4/26/2020 13:51:06,0,100,943,1,4/26/2020 13:51:07, ,1,1,1,1,1,1,4,55.447,239.446,242.319,9, ,19,18,17,19,18,44,39,77,46, , , , , , , , , , , , , , , ,11.579,138.582,140.376,35,13,15,15,13,15,13,12,14,2,5,6,13,15,15,14,14,6,6,7,7,6,7,6,6,5,6,5,7,6,5,6,6,5,6,6,6,6,5,7,5,7,7,5,7,12.432,134.124,139.1,53,3,2,4,4,3,4,5,2,4,4,3,2,4,3,2,3,4,3,13,14,15,2,3,4,5,4,3,2,2,3,4,7,4,4,2,28,1,6,6,2,4,2,4,27.046,137.19,138.234,48,13,12,21,22,3,3,0,8,9,4,5,9,5,5,9,4,2,1,40,40,37,39,40,40,16,17,3,5,4,6,5,3,5,4,6,3,4,3,2, ,3,France, ,1,26,3, , , , , , , , , , , ,1, , ,6,10,1,1,1,0,0,0,apparently no, , , , , , , , , , , , , , , , , , , , , , , , , , , , , , , , , , , , , , , , , , , , , , , , ,25,1,4, ,5, , , , , , , , , , , , , , , , , , , , , , , , , , , , , , , , , , , , , , , , , , , , , , , , , , , , , , ,1,1,1,1,1,1,4,12.249,352.401,354.013,9,1,20,20,21,19,20,39,39,78,85, , , , , , , , , , , , , , , ,66.128,425.027,427.105,51,13,15,16,12,15,14,13,12,6,7,7,6,8.072,41.374,43.195,13,3,4,1,1,1,2,5,4,3,3,2,4,4,3,4,3,4,2,3,4,5,7,2,2,1,3,5,3,6,4,3,3,4,6.086,274.748,275.95,41,23,22,4,4,9,5,5,4,9,39,40,37,4, ,40,37,39,3,2,5,4,8,1,3,10, 
4/26/2020 9:34:04,4/26/2020 9:52:55,0,100,1131,1,4/26/2020 9:52:56, ,1,1,1,1,1,1,4,.705,27.987,29.601,20, ,17,17,19,19,17,40,40,80,-10, , , , , , , , , , , , , , , ,2.055,290.984,294.739,141,12,12,12,15,13,12,12,13,1,1,1,13,15,12,15,12,7,6,4,4,7,4,7,4,6,5,4,6,5,5,7,5,6,8,6,7,5,4,4,7,5,4,4,7,3.209,204.763,205.916,97,3,1,4,1,1,1,3,2,2,1,3,1,3,2,3,2,3,1,16,16,16,5,5,5,5,2,4,4,2,6,6,6,3,2,2,27,1,5,4,2,2,3,2,3.52,223.77,224.687,106,12,12,21,23,4,0,4,6,6,1,1,1,1,1,1,1,1,1,37,37,37,39,38,40,13,11,1,3,2,6,6,6,6,5,6,4,5,5,2, ,2, ,39,1,41,4, , , ,1,1, , , ,2,1, ,1, , ,6,10,1,1,1,0,0,0,No, , , , , , , , , , , , , , , , , , , , , , , , , , , , , , , , , , , , , , , , , , , , , , , , ,41,1,10, ,2, , , , , , , , , , , , , , , , , , , , , , , , , , , , , , , , , , , , , , , , , , , , , , , , , , , , , , ,1,1,1,1,1,1,4,14.963,35.097,36.194,16,1,19,19,20,19,19,40,40,90,0, , , , , , , , , , , , , , , ,2.684,216.768,217.734,87,12,13,13,13,13,12,12,15,4,4,4,4,6.272,60.759,68.613,31,1,1,3,1,1,1,3,1,2,1,5,1,3,1,2,3,5,1,2,4,4,5,1,5,4,1,7,7,7,1,2,2,2,4.894,127.586,128.705,76,20,23,1,1,1,1,1,1,1,37,37,37,4,Because they are thw outgoing ones who want to be around people.,38,37,40,5,5,5,5,5,1,3,0,Not really
4/26/2020 7:49:29,4/26/2020 8:05:29,0,100,959,1,4/26/2020 8:05:30, ,1,1,1,1,1,1,4,255.556,263.052,264.537,7, ,19,20,19,20,21,41,40,100,31, , , , , , , , , , , , , , , ,3.058,173.854,174.264,46,13,14,15,13,12,13,12,11,8,7, ,11,11,11,11,11,6,7,4,5,4,4,5,4,6,4,5,5,4,6,4,4,5,4,6,7,5,4,4,7,6,4,4,4,13.027,131.789,133.724,55,3,4,3,1,2,1,4,1,3,1,3,1,4,2,4,2,3,1,17,16,16,5,5,6,5,1,4,4,1,7,6,4,4,2,2,28,1,2,4,2,1,4,2,3.059,175.55,176.788,56,13,12,20,23,3.5,0,0,9,9,4,1,4, ,4,4,1,3,3,37,39,37,39,40,39,16,14,4,5,5,5,6,6,4,3,5,5,5,4,2, ,2, ,37,1,58,3, , , , , , , , , , , ,1, , ,6,100,1, , ,1, , , , , , , , , , , , , , , , , , , , , , , , , , , , , , , , , , , , , , , , , , , , , , , , , , , ,58,1,10, ,4, , , , , , , , , , , , , , , , , , , , , , , , , , , , , , , , , , , , , , , , , , , , , , , , , , , , , , ,1,1,1,1,1,1,4,6.315,11.564,18.443,8,1,19,18,19,19,20,40,40,100,10, , , , , , , , , , , , , , , ,2.013,164.469,166.067,54,11,13,15,13,12,11,12,11,4,4,4,4,1.187,26.007,32.379,19,3,3,4,1,2,1,4,1,3,1,4,1,5,1,4,2,3,1,5,5,5,4,1,4,4,1,6,6,5,1,3,3,2,52.064,149.985,150.981,45,20,23,1,1,1,4,4,1,1,38,39,37,4,They are more used to being with people.,40,40,40,4,5,4,5,6,3,1,0,no. I a doing OK with very few frustrations
4/26/2020 7:43:24,4/26/2020 8:04:26,0,100,1261,1,4/26/2020 8:04:27, ,1,1,1,1,1,1,4,92.817,99.978,101.79,8, ,19,19,19,19,18,32,40,60,-20, , , , , , , , , , , , , , , ,312.415,452.628,453.363,34,15,14,14,16,15,15,15,15,7,8,8,12,12,11,11,11,6,7,4,7,7,5,7,4,6,6,6,7,5,8,7,5,7,8,8,8,6,7,6,7,8,4,7,8,4.874,143.816,144.318,54,4,4,3,3,4,2,3,3,3,3,3,4,4,3,4,3,3,3,17,17,14, , , ,3,3,3,3,4,3,3,4,3,4,2,27,2,2,5,3,4,4,3,3.981,189.563,189.567,53,11,12,22,21,7,2,1,9,8,9,9,9,5,9,5,9,5,4,40,40,40,40,40,40,16,14,6,6,6,4,2,2,4,6,6,5,4,3,2, ,1, , ,1,22,4, , , ,1,1, , , ,1,2, ,1, , ,6,20,1,1,1,0,1,0, , , , , , , , , , , , , , , , , , , , , , , , , , , , , , , , , , , , , , , , , , , , , , , , , ,22,1,9, ,4, , , , , , , , , , , , , , , , , , , , , , , , , , , , , , , , , , , , , , , , , , , , , , , , , , , , , , ,1,1,1,1,1,1,4,2.296,6.324,11.394,8,1,19,19,17,17,17,8,40,16,-80, , , , , , , , , , , , , , , ,18.947,72.892,74.171,20,15,15,15,15,16,15,13,15,7,7,7,7,11.862,156.796,157.425,17,3,4,2,2,3,3,2,4,1,3,2,5,2,5,3,5,2,3,2,2,2,3,2,2,2,2,3,4,4,3,4,4,2,2.201,747.791,748.359,47,21,20,10,10,10,9,10,10,10,41,41,40,3,"Introverts are in choices beyond their control, while extroverts lack the social contact they require. Everyone's suffering on the same level, ultimately.",40,39,39,4,4,2,9,9,1,3,0, 
4/27/2020 11:54:16,4/27/2020 12:11:00,0,100,1004,1,4/27/2020 12:11:01, ,1,1,1,1,1,1,4,3.847,22.326,23.653,8, ,16,16,18,17,15,40,40,70,-20, , , , , , , , , , , , , , , ,14.687,148.107,149.889,29,13,13,13,12,15,12,11,12,6,6,7,15,16,13,12,13,5,6,4,4,5,4,6,5,5,4,4,6,5,6,6,4,7,7,5,7,7,4,4,6,6,4,4,5,8.701,238.906,239.878,54,2,4,2,1,3,2,3,2,4,2,3,4,3,3,3,3,4,3,15,15,13,5,3,4,4,3,4,2,2,6,3,5,3,5,3,27,2,2,5,1,4,5,3,16.378,230.851,231.508,61,2,14,21,23,2,2,0,10,10,1,1,9,5,5,5,4,3,3,39,39,37,39,39,39,17,14,5,5,4,5,4,4,5,5,5,4,4,5,2, ,3,Poland, ,1,26,4,1,1,1,1,1,0,1,1,0,1, ,1, , ,6,13,1,1,1,2,1,1, , , , , , , , , , , , , , , , , , , , , , , , , , , , , , , , , , , , , , , , , , , , , , , , , ,26,1,3,Poland,5, , , , , , , , , , , , , , , , , , , , , , , , , , , , , , , , , , , , , , , , , , , , , , , , , , , , , , ,1,1,1,1,1,1,4,6.129,13.643,15.61,8,1,17,18,18,18,17,40,40,70,-25, , , , , , , , , , , , , , , ,4.207,146.865,148.695,35,13,14,14,13,13,13,13,13,6,5,5,5,9.19,78.619,79.885,14,3,3,3,1,2,1,3,2,4,2,2,3,4,2,3,2,3,1,4,4,4,3,2,4,3,1,6,4,3,2,4,4,3,15.684,211.982,212.343,46,21,23,1,1,1,4,4,1,1,38,39,37,4,It's easier for Introverts to spend time alone,39,39,39,4,4,3,3,3,1,2,12, 
